 &control
    calculation='bands'
    pseudo_dir = '/burg/home/hqp2000/mcu/data/QE/si_band_dos/',
    outdir='/burg/home/hqp2000/mcu/data/QE/si_band_dos/tmp/',
    prefix='si'
	verbosity='high'
 /
 &system
    ibrav=  2
	celldm(1) =10.20
	nat=  2
	ntyp= 1
    ecutwfc = 18.0
	nbnd = 16
 /
 &electrons
    diagonalization='david'
 /
ATOMIC_SPECIES
 Si  28.086  Si.pbe-n-kjpaw_psl.1.0.0.UPF
ATOMIC_POSITIONS
 Si 0.00 0.00 0.00
 Si 0.25 0.25 0.25
K_POINTS
141
    0.3750000000     0.3750000000     0.7500000000 1
    0.3671875000     0.3671875000     0.7343750000 1
    0.3593750000     0.3593750000     0.7187500000 1
    0.3515625000     0.3515625000     0.7031250000 1
    0.3437500000     0.3437500000     0.6875000000 1
    0.3359375000     0.3359375000     0.6718750000 1
    0.3281250000     0.3281250000     0.6562500000 1
    0.3203125000     0.3203125000     0.6406250000 1
    0.3125000000     0.3125000000     0.6250000000 1
    0.3046875000     0.3046875000     0.6093750000 1
    0.2968750000     0.2968750000     0.5937500000 1
    0.2890625000     0.2890625000     0.5781250000 1
    0.2812500000     0.2812500000     0.5625000000 1
    0.2734375000     0.2734375000     0.5468750000 1
    0.2656250000     0.2656250000     0.5312500000 1
    0.2578125000     0.2578125000     0.5156250000 1
    0.2500000000     0.2500000000     0.5000000000 1
    0.2421875000     0.2421875000     0.4843750000 1
    0.2343750000     0.2343750000     0.4687500000 1
    0.2265625000     0.2265625000     0.4531250000 1
    0.2187500000     0.2187500000     0.4375000000 1
    0.2109375000     0.2109375000     0.4218750000 1
    0.2031250000     0.2031250000     0.4062500000 1
    0.1953125000     0.1953125000     0.3906250000 1
    0.1875000000     0.1875000000     0.3750000000 1
    0.1796875000     0.1796875000     0.3593750000 1
    0.1718750000     0.1718750000     0.3437500000 1
    0.1640625000     0.1640625000     0.3281250000 1
    0.1562500000     0.1562500000     0.3125000000 1
    0.1484375000     0.1484375000     0.2968750000 1
    0.1406250000     0.1406250000     0.2812500000 1
    0.1328125000     0.1328125000     0.2656250000 1
    0.1250000000     0.1250000000     0.2500000000 1
    0.1171875000     0.1171875000     0.2343750000 1
    0.1093750000     0.1093750000     0.2187500000 1
    0.1015625000     0.1015625000     0.2031250000 1
    0.0937500000     0.0937500000     0.1875000000 1
    0.0859375000     0.0859375000     0.1718750000 1
    0.0781250000     0.0781250000     0.1562500000 1
    0.0703125000     0.0703125000     0.1406250000 1
    0.0625000000     0.0625000000     0.1250000000 1
    0.0546875000     0.0546875000     0.1093750000 1
    0.0468750000     0.0468750000     0.0937500000 1
    0.0390625000     0.0390625000     0.0781250000 1
    0.0312500000     0.0312500000     0.0625000000 1
    0.0234375000     0.0234375000     0.0468750000 1
    0.0156250000     0.0156250000     0.0312500000 1
    0.0078125000     0.0078125000     0.0156250000 1
    0.0000000000     0.0000000000     0.0000000000 1
    0.0128205128     0.0128205128     0.0128205128 1
    0.0256410256     0.0256410256     0.0256410256 1
    0.0384615385     0.0384615385     0.0384615385 1
    0.0512820513     0.0512820513     0.0512820513 1
    0.0641025641     0.0641025641     0.0641025641 1
    0.0769230769     0.0769230769     0.0769230769 1
    0.0897435897     0.0897435897     0.0897435897 1
    0.1025641026     0.1025641026     0.1025641026 1
    0.1153846154     0.1153846154     0.1153846154 1
    0.1282051282     0.1282051282     0.1282051282 1
    0.1410256410     0.1410256410     0.1410256410 1
    0.1538461538     0.1538461538     0.1538461538 1
    0.1666666667     0.1666666667     0.1666666667 1
    0.1794871795     0.1794871795     0.1794871795 1
    0.1923076923     0.1923076923     0.1923076923 1
    0.2051282051     0.2051282051     0.2051282051 1
    0.2179487179     0.2179487179     0.2179487179 1
    0.2307692308     0.2307692308     0.2307692308 1
    0.2435897436     0.2435897436     0.2435897436 1
    0.2564102564     0.2564102564     0.2564102564 1
    0.2692307692     0.2692307692     0.2692307692 1
    0.2820512821     0.2820512821     0.2820512821 1
    0.2948717949     0.2948717949     0.2948717949 1
    0.3076923077     0.3076923077     0.3076923077 1
    0.3205128205     0.3205128205     0.3205128205 1
    0.3333333333     0.3333333333     0.3333333333 1
    0.3461538462     0.3461538462     0.3461538462 1
    0.3589743590     0.3589743590     0.3589743590 1
    0.3717948718     0.3717948718     0.3717948718 1
    0.3846153846     0.3846153846     0.3846153846 1
    0.3974358974     0.3974358974     0.3974358974 1
    0.4102564103     0.4102564103     0.4102564103 1
    0.4230769231     0.4230769231     0.4230769231 1
    0.4358974359     0.4358974359     0.4358974359 1
    0.4487179487     0.4487179487     0.4487179487 1
    0.4615384615     0.4615384615     0.4615384615 1
    0.4743589744     0.4743589744     0.4743589744 1
    0.4871794872     0.4871794872     0.4871794872 1
    0.5000000000     0.5000000000     0.5000000000 1
    0.5000000000     0.4919354839     0.5080645161 1
    0.5000000000     0.4838709677     0.5161290323 1
    0.5000000000     0.4758064516     0.5241935484 1
    0.5000000000     0.4677419355     0.5322580645 1
    0.5000000000     0.4596774194     0.5403225806 1
    0.5000000000     0.4516129032     0.5483870968 1
    0.5000000000     0.4435483871     0.5564516129 1
    0.5000000000     0.4354838710     0.5645161290 1
    0.5000000000     0.4274193548     0.5725806452 1
    0.5000000000     0.4193548387     0.5806451613 1
    0.5000000000     0.4112903226     0.5887096774 1
    0.5000000000     0.4032258065     0.5967741935 1
    0.5000000000     0.3951612903     0.6048387097 1
    0.5000000000     0.3870967742     0.6129032258 1
    0.5000000000     0.3790322581     0.6209677419 1
    0.5000000000     0.3709677419     0.6290322581 1
    0.5000000000     0.3629032258     0.6370967742 1
    0.5000000000     0.3548387097     0.6451612903 1
    0.5000000000     0.3467741935     0.6532258065 1
    0.5000000000     0.3387096774     0.6612903226 1
    0.5000000000     0.3306451613     0.6693548387 1
    0.5000000000     0.3225806452     0.6774193548 1
    0.5000000000     0.3145161290     0.6854838710 1
    0.5000000000     0.3064516129     0.6935483871 1
    0.5000000000     0.2983870968     0.7016129032 1
    0.5000000000     0.2903225806     0.7096774194 1
    0.5000000000     0.2822580645     0.7177419355 1
    0.5000000000     0.2741935484     0.7258064516 1
    0.5000000000     0.2661290323     0.7338709677 1
    0.5000000000     0.2580645161     0.7419354839 1
    0.5000000000     0.2500000000     0.7500000000 1
    0.5000000000     0.2386363636     0.7386363636 1
    0.5000000000     0.2272727273     0.7272727273 1
    0.5000000000     0.2159090909     0.7159090909 1
    0.5000000000     0.2045454545     0.7045454545 1
    0.5000000000     0.1931818182     0.6931818182 1
    0.5000000000     0.1818181818     0.6818181818 1
    0.5000000000     0.1704545455     0.6704545455 1
    0.5000000000     0.1590909091     0.6590909091 1
    0.5000000000     0.1477272727     0.6477272727 1
    0.5000000000     0.1363636364     0.6363636364 1
    0.5000000000     0.1250000000     0.6250000000 1
    0.5000000000     0.1136363636     0.6136363636 1
    0.5000000000     0.1022727273     0.6022727273 1
    0.5000000000     0.0909090909     0.5909090909 1
    0.5000000000     0.0795454545     0.5795454545 1
    0.5000000000     0.0681818182     0.5681818182 1
    0.5000000000     0.0568181818     0.5568181818 1
    0.5000000000     0.0454545455     0.5454545455 1
    0.5000000000     0.0340909091     0.5340909091 1
    0.5000000000     0.0227272727     0.5227272727 1
    0.5000000000     0.0113636364     0.5113636364 1
    0.5000000000     0.0000000000     0.5000000000 1
