 &DOS
  prefix='si'
  outdir='/burg/home/hqp2000/mcu/data/QE/si_band_dos/tmp/'
 /
