 &control
    calculation = 'scf'
    restart_mode='from_scratch',
    prefix='si',
    tstress = .true.
    tprnfor = .true.
    pseudo_dir = '/burg/home/hqp2000/mcu/data/QE/si_band_dos/',
    outdir='/burg/home/hqp2000/mcu/data/QE/si_band_dos/tmp/'
 /
 &system
    ibrav=  2
	celldm(1) =10.20
	nat=  2
	ntyp= 1
    ecutwfc = 18.0
	nbnd = 16
 /
 &electrons
    diagonalization='david'
    mixing_mode = 'plain'
    mixing_beta = 0.7
    conv_thr =  1.0d-8
 /
ATOMIC_SPECIES
 Si  28.086  Si.pbe-n-kjpaw_psl.1.0.0.UPF
ATOMIC_POSITIONS
 Si 0.00 0.00 0.00
 Si 0.25 0.25 0.25
K_POINTS automatic
4 4 4 0 0 0
