Automatically generated mesh
       18
Reciprocal lattice
    0.00000000000000    0.00000000000000    0.00000000000000             1
    0.25000000000000    0.00000000000000    0.00000000000000             8
    0.50000000000000    0.00000000000000    0.00000000000000             4
    0.25000000000000    0.25000000000000    0.00000000000000             6
    0.50000000000000    0.25000000000000    0.00000000000000            24
   -0.25000000000000    0.25000000000000    0.00000000000000            12
    0.50000000000000    0.50000000000000    0.00000000000000             3
   -0.25000000000000    0.50000000000000    0.25000000000000             6
0.000000	0.000000	0.000000	0
0.083333	0.166667	0.083333	0
0.166667	0.333333	0.166667	0
0.250000	0.500000	0.250000	0
0.291667	0.541667	0.333333	0
0.333333	0.583333	0.416667	0
0.375000	0.625000	0.500000	0
0.333333	0.583333	0.416667	0
0.291667	0.541667	0.333333	0
0.250000	0.500000	0.250000	0

