Generated mesh by mcu:  xy 0.5000  0.5000 21 21
    541 # + of k-points from IBZKPT
Reciprocal lattice
    0.00000000000000    0.00000000000000    0.00000000000000             1
    0.10000000000000    0.00000000000000    0.00000000000000             1
    0.20000000000000    0.00000000000000    0.00000000000000             1
    0.30000000000000    0.00000000000000    0.00000000000000             1
    0.40000000000000    0.00000000000000    0.00000000000000             1
    0.50000000000000    0.00000000000000    0.00000000000000             1
   -0.40000000000000    0.00000000000000    0.00000000000000             1
   -0.30000000000000    0.00000000000000    0.00000000000000             1
   -0.20000000000000    0.00000000000000    0.00000000000000             1
   -0.10000000000000    0.00000000000000    0.00000000000000             1
    0.00000000000000    0.10000000000000    0.00000000000000             1
    0.10000000000000    0.10000000000000    0.00000000000000             1
    0.20000000000000    0.10000000000000    0.00000000000000             1
    0.30000000000000    0.10000000000000    0.00000000000000             1
    0.40000000000000    0.10000000000000    0.00000000000000             1
    0.50000000000000    0.10000000000000    0.00000000000000             1
   -0.40000000000000    0.10000000000000    0.00000000000000             1
   -0.30000000000000    0.10000000000000    0.00000000000000             1
   -0.20000000000000    0.10000000000000    0.00000000000000             1
   -0.10000000000000    0.10000000000000    0.00000000000000             1
    0.00000000000000    0.20000000000000   -0.00000000000000             1
    0.10000000000000    0.20000000000000   -0.00000000000000             1
    0.20000000000000    0.20000000000000   -0.00000000000000             1
    0.30000000000000    0.20000000000000   -0.00000000000000             1
    0.40000000000000    0.20000000000000   -0.00000000000000             1
    0.50000000000000    0.20000000000000   -0.00000000000000             1
   -0.40000000000000    0.20000000000000   -0.00000000000000             1
   -0.30000000000000    0.20000000000000   -0.00000000000000             1
   -0.20000000000000    0.20000000000000   -0.00000000000000             1
   -0.10000000000000    0.20000000000000   -0.00000000000000             1
    0.00000000000000    0.30000000000000    0.00000000000000             1
    0.10000000000000    0.30000000000000    0.00000000000000             1
    0.20000000000000    0.30000000000000    0.00000000000000             1
    0.30000000000000    0.30000000000000    0.00000000000000             1
    0.40000000000000    0.30000000000000    0.00000000000000             1
    0.50000000000000    0.30000000000000    0.00000000000000             1
   -0.40000000000000    0.30000000000000    0.00000000000000             1
   -0.30000000000000    0.30000000000000    0.00000000000000             1
   -0.20000000000000    0.30000000000000    0.00000000000000             1
   -0.10000000000000    0.30000000000000    0.00000000000000             1
    0.00000000000000    0.40000000000000   -0.00000000000000             1
    0.10000000000000    0.40000000000000   -0.00000000000000             1
    0.20000000000000    0.40000000000000   -0.00000000000000             1
    0.30000000000000    0.40000000000000   -0.00000000000000             1
    0.40000000000000    0.40000000000000   -0.00000000000000             1
    0.50000000000000    0.40000000000000   -0.00000000000000             1
   -0.40000000000000    0.40000000000000   -0.00000000000000             1
   -0.30000000000000    0.40000000000000   -0.00000000000000             1
   -0.20000000000000    0.40000000000000   -0.00000000000000             1
   -0.10000000000000    0.40000000000000   -0.00000000000000             1
    0.00000000000000    0.50000000000000   -0.00000000000000             1
    0.10000000000000    0.50000000000000   -0.00000000000000             1
    0.20000000000000    0.50000000000000   -0.00000000000000             1
    0.30000000000000    0.50000000000000   -0.00000000000000             1
    0.40000000000000    0.50000000000000   -0.00000000000000             1
    0.50000000000000    0.50000000000000   -0.00000000000000             1
   -0.40000000000000    0.50000000000000   -0.00000000000000             1
   -0.30000000000000    0.50000000000000   -0.00000000000000             1
   -0.20000000000000    0.50000000000000   -0.00000000000000             1
   -0.10000000000000    0.50000000000000   -0.00000000000000             1
    0.00000000000000   -0.40000000000000    0.00000000000000             1
    0.10000000000000   -0.40000000000000    0.00000000000000             1
    0.20000000000000   -0.40000000000000    0.00000000000000             1
    0.30000000000000   -0.40000000000000    0.00000000000000             1
    0.40000000000000   -0.40000000000000    0.00000000000000             1
    0.50000000000000   -0.40000000000000    0.00000000000000             1
   -0.40000000000000   -0.40000000000000    0.00000000000000             1
   -0.30000000000000   -0.40000000000000    0.00000000000000             1
   -0.20000000000000   -0.40000000000000    0.00000000000000             1
   -0.10000000000000   -0.40000000000000    0.00000000000000             1
    0.00000000000000   -0.30000000000000   -0.00000000000000             1
    0.10000000000000   -0.30000000000000   -0.00000000000000             1
    0.20000000000000   -0.30000000000000   -0.00000000000000             1
    0.30000000000000   -0.30000000000000   -0.00000000000000             1
    0.40000000000000   -0.30000000000000   -0.00000000000000             1
    0.50000000000000   -0.30000000000000   -0.00000000000000             1
   -0.40000000000000   -0.30000000000000   -0.00000000000000             1
   -0.30000000000000   -0.30000000000000   -0.00000000000000             1
   -0.20000000000000   -0.30000000000000   -0.00000000000000             1
   -0.10000000000000   -0.30000000000000   -0.00000000000000             1
    0.00000000000000   -0.20000000000000    0.00000000000000             1
    0.10000000000000   -0.20000000000000    0.00000000000000             1
    0.20000000000000   -0.20000000000000    0.00000000000000             1
    0.30000000000000   -0.20000000000000    0.00000000000000             1
    0.40000000000000   -0.20000000000000    0.00000000000000             1
    0.50000000000000   -0.20000000000000    0.00000000000000             1
   -0.40000000000000   -0.20000000000000    0.00000000000000             1
   -0.30000000000000   -0.20000000000000    0.00000000000000             1
   -0.20000000000000   -0.20000000000000    0.00000000000000             1
   -0.10000000000000   -0.20000000000000    0.00000000000000             1
    0.00000000000000   -0.10000000000000    0.00000000000000             1
    0.10000000000000   -0.10000000000000    0.00000000000000             1
    0.20000000000000   -0.10000000000000    0.00000000000000             1
    0.30000000000000   -0.10000000000000    0.00000000000000             1
    0.40000000000000   -0.10000000000000    0.00000000000000             1
    0.50000000000000   -0.10000000000000    0.00000000000000             1
   -0.40000000000000   -0.10000000000000    0.00000000000000             1
   -0.30000000000000   -0.10000000000000    0.00000000000000             1
   -0.20000000000000   -0.10000000000000    0.00000000000000             1
   -0.10000000000000   -0.10000000000000    0.00000000000000             1
 -0.2528198564   -0.4558332011   -0.0298965425      0
 -0.2528198564   -0.4102498810   -0.0269068882      0
 -0.2528198564   -0.3646665609   -0.0239172340      0
 -0.2528198564   -0.3190832408   -0.0209275797      0
 -0.2528198564   -0.2734999207   -0.0179379255      0
 -0.2528198564   -0.2279166005   -0.0149482712      0
 -0.2528198564   -0.1823332804   -0.0119586170      0
 -0.2528198564   -0.1367499603   -0.0089689627      0
 -0.2528198564   -0.0911666402   -0.0059793085      0
 -0.2528198564   -0.0455833201   -0.0029896542      0
 -0.2528198564    0.0000000000    0.0000000000      0
 -0.2528198564    0.0455833201    0.0029896542      0
 -0.2528198564    0.0911666402    0.0059793085      0
 -0.2528198564    0.1367499603    0.0089689627      0
 -0.2528198564    0.1823332804    0.0119586170      0
 -0.2528198564    0.2279166005    0.0149482712      0
 -0.2528198564    0.2734999207    0.0179379255      0
 -0.2528198564    0.3190832408    0.0209275797      0
 -0.2528198564    0.3646665609    0.0239172340      0
 -0.2528198564    0.4102498810    0.0269068882      0
 -0.2528198564    0.4558332011    0.0298965425      0
 -0.2275378707   -0.4558332011   -0.0298965425      0
 -0.2275378707   -0.4102498810   -0.0269068882      0
 -0.2275378707   -0.3646665609   -0.0239172340      0
 -0.2275378707   -0.3190832408   -0.0209275797      0
 -0.2275378707   -0.2734999207   -0.0179379255      0
 -0.2275378707   -0.2279166005   -0.0149482712      0
 -0.2275378707   -0.1823332804   -0.0119586170      0
 -0.2275378707   -0.1367499603   -0.0089689627      0
 -0.2275378707   -0.0911666402   -0.0059793085      0
 -0.2275378707   -0.0455833201   -0.0029896542      0
 -0.2275378707    0.0000000000    0.0000000000      0
 -0.2275378707    0.0455833201    0.0029896542      0
 -0.2275378707    0.0911666402    0.0059793085      0
 -0.2275378707    0.1367499603    0.0089689627      0
 -0.2275378707    0.1823332804    0.0119586170      0
 -0.2275378707    0.2279166005    0.0149482712      0
 -0.2275378707    0.2734999207    0.0179379255      0
 -0.2275378707    0.3190832408    0.0209275797      0
 -0.2275378707    0.3646665609    0.0239172340      0
 -0.2275378707    0.4102498810    0.0269068882      0
 -0.2275378707    0.4558332011    0.0298965425      0
 -0.2022558851   -0.4558332011   -0.0298965425      0
 -0.2022558851   -0.4102498810   -0.0269068882      0
 -0.2022558851   -0.3646665609   -0.0239172340      0
 -0.2022558851   -0.3190832408   -0.0209275797      0
 -0.2022558851   -0.2734999207   -0.0179379255      0
 -0.2022558851   -0.2279166005   -0.0149482712      0
 -0.2022558851   -0.1823332804   -0.0119586170      0
 -0.2022558851   -0.1367499603   -0.0089689627      0
 -0.2022558851   -0.0911666402   -0.0059793085      0
 -0.2022558851   -0.0455833201   -0.0029896542      0
 -0.2022558851    0.0000000000    0.0000000000      0
 -0.2022558851    0.0455833201    0.0029896542      0
 -0.2022558851    0.0911666402    0.0059793085      0
 -0.2022558851    0.1367499603    0.0089689627      0
 -0.2022558851    0.1823332804    0.0119586170      0
 -0.2022558851    0.2279166005    0.0149482712      0
 -0.2022558851    0.2734999207    0.0179379255      0
 -0.2022558851    0.3190832408    0.0209275797      0
 -0.2022558851    0.3646665609    0.0239172340      0
 -0.2022558851    0.4102498810    0.0269068882      0
 -0.2022558851    0.4558332011    0.0298965425      0
 -0.1769738995   -0.4558332011   -0.0298965425      0
 -0.1769738995   -0.4102498810   -0.0269068882      0
 -0.1769738995   -0.3646665609   -0.0239172340      0
 -0.1769738995   -0.3190832408   -0.0209275797      0
 -0.1769738995   -0.2734999207   -0.0179379255      0
 -0.1769738995   -0.2279166005   -0.0149482712      0
 -0.1769738995   -0.1823332804   -0.0119586170      0
 -0.1769738995   -0.1367499603   -0.0089689627      0
 -0.1769738995   -0.0911666402   -0.0059793085      0
 -0.1769738995   -0.0455833201   -0.0029896542      0
 -0.1769738995    0.0000000000    0.0000000000      0
 -0.1769738995    0.0455833201    0.0029896542      0
 -0.1769738995    0.0911666402    0.0059793085      0
 -0.1769738995    0.1367499603    0.0089689627      0
 -0.1769738995    0.1823332804    0.0119586170      0
 -0.1769738995    0.2279166005    0.0149482712      0
 -0.1769738995    0.2734999207    0.0179379255      0
 -0.1769738995    0.3190832408    0.0209275797      0
 -0.1769738995    0.3646665609    0.0239172340      0
 -0.1769738995    0.4102498810    0.0269068882      0
 -0.1769738995    0.4558332011    0.0298965425      0
 -0.1516919138   -0.4558332011   -0.0298965425      0
 -0.1516919138   -0.4102498810   -0.0269068882      0
 -0.1516919138   -0.3646665609   -0.0239172340      0
 -0.1516919138   -0.3190832408   -0.0209275797      0
 -0.1516919138   -0.2734999207   -0.0179379255      0
 -0.1516919138   -0.2279166005   -0.0149482712      0
 -0.1516919138   -0.1823332804   -0.0119586170      0
 -0.1516919138   -0.1367499603   -0.0089689627      0
 -0.1516919138   -0.0911666402   -0.0059793085      0
 -0.1516919138   -0.0455833201   -0.0029896542      0
 -0.1516919138    0.0000000000    0.0000000000      0
 -0.1516919138    0.0455833201    0.0029896542      0
 -0.1516919138    0.0911666402    0.0059793085      0
 -0.1516919138    0.1367499603    0.0089689627      0
 -0.1516919138    0.1823332804    0.0119586170      0
 -0.1516919138    0.2279166005    0.0149482712      0
 -0.1516919138    0.2734999207    0.0179379255      0
 -0.1516919138    0.3190832408    0.0209275797      0
 -0.1516919138    0.3646665609    0.0239172340      0
 -0.1516919138    0.4102498810    0.0269068882      0
 -0.1516919138    0.4558332011    0.0298965425      0
 -0.1264099282   -0.4558332011   -0.0298965425      0
 -0.1264099282   -0.4102498810   -0.0269068882      0
 -0.1264099282   -0.3646665609   -0.0239172340      0
 -0.1264099282   -0.3190832408   -0.0209275797      0
 -0.1264099282   -0.2734999207   -0.0179379255      0
 -0.1264099282   -0.2279166005   -0.0149482712      0
 -0.1264099282   -0.1823332804   -0.0119586170      0
 -0.1264099282   -0.1367499603   -0.0089689627      0
 -0.1264099282   -0.0911666402   -0.0059793085      0
 -0.1264099282   -0.0455833201   -0.0029896542      0
 -0.1264099282    0.0000000000    0.0000000000      0
 -0.1264099282    0.0455833201    0.0029896542      0
 -0.1264099282    0.0911666402    0.0059793085      0
 -0.1264099282    0.1367499603    0.0089689627      0
 -0.1264099282    0.1823332804    0.0119586170      0
 -0.1264099282    0.2279166005    0.0149482712      0
 -0.1264099282    0.2734999207    0.0179379255      0
 -0.1264099282    0.3190832408    0.0209275797      0
 -0.1264099282    0.3646665609    0.0239172340      0
 -0.1264099282    0.4102498810    0.0269068882      0
 -0.1264099282    0.4558332011    0.0298965425      0
 -0.1011279426   -0.4558332011   -0.0298965425      0
 -0.1011279426   -0.4102498810   -0.0269068882      0
 -0.1011279426   -0.3646665609   -0.0239172340      0
 -0.1011279426   -0.3190832408   -0.0209275797      0
 -0.1011279426   -0.2734999207   -0.0179379255      0
 -0.1011279426   -0.2279166005   -0.0149482712      0
 -0.1011279426   -0.1823332804   -0.0119586170      0
 -0.1011279426   -0.1367499603   -0.0089689627      0
 -0.1011279426   -0.0911666402   -0.0059793085      0
 -0.1011279426   -0.0455833201   -0.0029896542      0
 -0.1011279426    0.0000000000    0.0000000000      0
 -0.1011279426    0.0455833201    0.0029896542      0
 -0.1011279426    0.0911666402    0.0059793085      0
 -0.1011279426    0.1367499603    0.0089689627      0
 -0.1011279426    0.1823332804    0.0119586170      0
 -0.1011279426    0.2279166005    0.0149482712      0
 -0.1011279426    0.2734999207    0.0179379255      0
 -0.1011279426    0.3190832408    0.0209275797      0
 -0.1011279426    0.3646665609    0.0239172340      0
 -0.1011279426    0.4102498810    0.0269068882      0
 -0.1011279426    0.4558332011    0.0298965425      0
 -0.0758459569   -0.4558332011   -0.0298965425      0
 -0.0758459569   -0.4102498810   -0.0269068882      0
 -0.0758459569   -0.3646665609   -0.0239172340      0
 -0.0758459569   -0.3190832408   -0.0209275797      0
 -0.0758459569   -0.2734999207   -0.0179379255      0
 -0.0758459569   -0.2279166005   -0.0149482712      0
 -0.0758459569   -0.1823332804   -0.0119586170      0
 -0.0758459569   -0.1367499603   -0.0089689627      0
 -0.0758459569   -0.0911666402   -0.0059793085      0
 -0.0758459569   -0.0455833201   -0.0029896542      0
 -0.0758459569    0.0000000000    0.0000000000      0
 -0.0758459569    0.0455833201    0.0029896542      0
 -0.0758459569    0.0911666402    0.0059793085      0
 -0.0758459569    0.1367499603    0.0089689627      0
 -0.0758459569    0.1823332804    0.0119586170      0
 -0.0758459569    0.2279166005    0.0149482712      0
 -0.0758459569    0.2734999207    0.0179379255      0
 -0.0758459569    0.3190832408    0.0209275797      0
 -0.0758459569    0.3646665609    0.0239172340      0
 -0.0758459569    0.4102498810    0.0269068882      0
 -0.0758459569    0.4558332011    0.0298965425      0
 -0.0505639713   -0.4558332011   -0.0298965425      0
 -0.0505639713   -0.4102498810   -0.0269068882      0
 -0.0505639713   -0.3646665609   -0.0239172340      0
 -0.0505639713   -0.3190832408   -0.0209275797      0
 -0.0505639713   -0.2734999207   -0.0179379255      0
 -0.0505639713   -0.2279166005   -0.0149482712      0
 -0.0505639713   -0.1823332804   -0.0119586170      0
 -0.0505639713   -0.1367499603   -0.0089689627      0
 -0.0505639713   -0.0911666402   -0.0059793085      0
 -0.0505639713   -0.0455833201   -0.0029896542      0
 -0.0505639713    0.0000000000    0.0000000000      0
 -0.0505639713    0.0455833201    0.0029896542      0
 -0.0505639713    0.0911666402    0.0059793085      0
 -0.0505639713    0.1367499603    0.0089689627      0
 -0.0505639713    0.1823332804    0.0119586170      0
 -0.0505639713    0.2279166005    0.0149482712      0
 -0.0505639713    0.2734999207    0.0179379255      0
 -0.0505639713    0.3190832408    0.0209275797      0
 -0.0505639713    0.3646665609    0.0239172340      0
 -0.0505639713    0.4102498810    0.0269068882      0
 -0.0505639713    0.4558332011    0.0298965425      0
 -0.0252819856   -0.4558332011   -0.0298965425      0
 -0.0252819856   -0.4102498810   -0.0269068882      0
 -0.0252819856   -0.3646665609   -0.0239172340      0
 -0.0252819856   -0.3190832408   -0.0209275797      0
 -0.0252819856   -0.2734999207   -0.0179379255      0
 -0.0252819856   -0.2279166005   -0.0149482712      0
 -0.0252819856   -0.1823332804   -0.0119586170      0
 -0.0252819856   -0.1367499603   -0.0089689627      0
 -0.0252819856   -0.0911666402   -0.0059793085      0
 -0.0252819856   -0.0455833201   -0.0029896542      0
 -0.0252819856    0.0000000000    0.0000000000      0
 -0.0252819856    0.0455833201    0.0029896542      0
 -0.0252819856    0.0911666402    0.0059793085      0
 -0.0252819856    0.1367499603    0.0089689627      0
 -0.0252819856    0.1823332804    0.0119586170      0
 -0.0252819856    0.2279166005    0.0149482712      0
 -0.0252819856    0.2734999207    0.0179379255      0
 -0.0252819856    0.3190832408    0.0209275797      0
 -0.0252819856    0.3646665609    0.0239172340      0
 -0.0252819856    0.4102498810    0.0269068882      0
 -0.0252819856    0.4558332011    0.0298965425      0
  0.0000000000   -0.4558332011   -0.0298965425      0
  0.0000000000   -0.4102498810   -0.0269068882      0
  0.0000000000   -0.3646665609   -0.0239172340      0
  0.0000000000   -0.3190832408   -0.0209275797      0
  0.0000000000   -0.2734999207   -0.0179379255      0
  0.0000000000   -0.2279166005   -0.0149482712      0
  0.0000000000   -0.1823332804   -0.0119586170      0
  0.0000000000   -0.1367499603   -0.0089689627      0
  0.0000000000   -0.0911666402   -0.0059793085      0
  0.0000000000   -0.0455833201   -0.0029896542      0
  0.0000000000    0.0000000000    0.0000000000      0
  0.0000000000    0.0455833201    0.0029896542      0
  0.0000000000    0.0911666402    0.0059793085      0
  0.0000000000    0.1367499603    0.0089689627      0
  0.0000000000    0.1823332804    0.0119586170      0
  0.0000000000    0.2279166005    0.0149482712      0
  0.0000000000    0.2734999207    0.0179379255      0
  0.0000000000    0.3190832408    0.0209275797      0
  0.0000000000    0.3646665609    0.0239172340      0
  0.0000000000    0.4102498810    0.0269068882      0
  0.0000000000    0.4558332011    0.0298965425      0
  0.0252819856   -0.4558332011   -0.0298965425      0
  0.0252819856   -0.4102498810   -0.0269068882      0
  0.0252819856   -0.3646665609   -0.0239172340      0
  0.0252819856   -0.3190832408   -0.0209275797      0
  0.0252819856   -0.2734999207   -0.0179379255      0
  0.0252819856   -0.2279166005   -0.0149482712      0
  0.0252819856   -0.1823332804   -0.0119586170      0
  0.0252819856   -0.1367499603   -0.0089689627      0
  0.0252819856   -0.0911666402   -0.0059793085      0
  0.0252819856   -0.0455833201   -0.0029896542      0
  0.0252819856    0.0000000000    0.0000000000      0
  0.0252819856    0.0455833201    0.0029896542      0
  0.0252819856    0.0911666402    0.0059793085      0
  0.0252819856    0.1367499603    0.0089689627      0
  0.0252819856    0.1823332804    0.0119586170      0
  0.0252819856    0.2279166005    0.0149482712      0
  0.0252819856    0.2734999207    0.0179379255      0
  0.0252819856    0.3190832408    0.0209275797      0
  0.0252819856    0.3646665609    0.0239172340      0
  0.0252819856    0.4102498810    0.0269068882      0
  0.0252819856    0.4558332011    0.0298965425      0
  0.0505639713   -0.4558332011   -0.0298965425      0
  0.0505639713   -0.4102498810   -0.0269068882      0
  0.0505639713   -0.3646665609   -0.0239172340      0
  0.0505639713   -0.3190832408   -0.0209275797      0
  0.0505639713   -0.2734999207   -0.0179379255      0
  0.0505639713   -0.2279166005   -0.0149482712      0
  0.0505639713   -0.1823332804   -0.0119586170      0
  0.0505639713   -0.1367499603   -0.0089689627      0
  0.0505639713   -0.0911666402   -0.0059793085      0
  0.0505639713   -0.0455833201   -0.0029896542      0
  0.0505639713    0.0000000000    0.0000000000      0
  0.0505639713    0.0455833201    0.0029896542      0
  0.0505639713    0.0911666402    0.0059793085      0
  0.0505639713    0.1367499603    0.0089689627      0
  0.0505639713    0.1823332804    0.0119586170      0
  0.0505639713    0.2279166005    0.0149482712      0
  0.0505639713    0.2734999207    0.0179379255      0
  0.0505639713    0.3190832408    0.0209275797      0
  0.0505639713    0.3646665609    0.0239172340      0
  0.0505639713    0.4102498810    0.0269068882      0
  0.0505639713    0.4558332011    0.0298965425      0
  0.0758459569   -0.4558332011   -0.0298965425      0
  0.0758459569   -0.4102498810   -0.0269068882      0
  0.0758459569   -0.3646665609   -0.0239172340      0
  0.0758459569   -0.3190832408   -0.0209275797      0
  0.0758459569   -0.2734999207   -0.0179379255      0
  0.0758459569   -0.2279166005   -0.0149482712      0
  0.0758459569   -0.1823332804   -0.0119586170      0
  0.0758459569   -0.1367499603   -0.0089689627      0
  0.0758459569   -0.0911666402   -0.0059793085      0
  0.0758459569   -0.0455833201   -0.0029896542      0
  0.0758459569    0.0000000000    0.0000000000      0
  0.0758459569    0.0455833201    0.0029896542      0
  0.0758459569    0.0911666402    0.0059793085      0
  0.0758459569    0.1367499603    0.0089689627      0
  0.0758459569    0.1823332804    0.0119586170      0
  0.0758459569    0.2279166005    0.0149482712      0
  0.0758459569    0.2734999207    0.0179379255      0
  0.0758459569    0.3190832408    0.0209275797      0
  0.0758459569    0.3646665609    0.0239172340      0
  0.0758459569    0.4102498810    0.0269068882      0
  0.0758459569    0.4558332011    0.0298965425      0
  0.1011279426   -0.4558332011   -0.0298965425      0
  0.1011279426   -0.4102498810   -0.0269068882      0
  0.1011279426   -0.3646665609   -0.0239172340      0
  0.1011279426   -0.3190832408   -0.0209275797      0
  0.1011279426   -0.2734999207   -0.0179379255      0
  0.1011279426   -0.2279166005   -0.0149482712      0
  0.1011279426   -0.1823332804   -0.0119586170      0
  0.1011279426   -0.1367499603   -0.0089689627      0
  0.1011279426   -0.0911666402   -0.0059793085      0
  0.1011279426   -0.0455833201   -0.0029896542      0
  0.1011279426    0.0000000000    0.0000000000      0
  0.1011279426    0.0455833201    0.0029896542      0
  0.1011279426    0.0911666402    0.0059793085      0
  0.1011279426    0.1367499603    0.0089689627      0
  0.1011279426    0.1823332804    0.0119586170      0
  0.1011279426    0.2279166005    0.0149482712      0
  0.1011279426    0.2734999207    0.0179379255      0
  0.1011279426    0.3190832408    0.0209275797      0
  0.1011279426    0.3646665609    0.0239172340      0
  0.1011279426    0.4102498810    0.0269068882      0
  0.1011279426    0.4558332011    0.0298965425      0
  0.1264099282   -0.4558332011   -0.0298965425      0
  0.1264099282   -0.4102498810   -0.0269068882      0
  0.1264099282   -0.3646665609   -0.0239172340      0
  0.1264099282   -0.3190832408   -0.0209275797      0
  0.1264099282   -0.2734999207   -0.0179379255      0
  0.1264099282   -0.2279166005   -0.0149482712      0
  0.1264099282   -0.1823332804   -0.0119586170      0
  0.1264099282   -0.1367499603   -0.0089689627      0
  0.1264099282   -0.0911666402   -0.0059793085      0
  0.1264099282   -0.0455833201   -0.0029896542      0
  0.1264099282    0.0000000000    0.0000000000      0
  0.1264099282    0.0455833201    0.0029896542      0
  0.1264099282    0.0911666402    0.0059793085      0
  0.1264099282    0.1367499603    0.0089689627      0
  0.1264099282    0.1823332804    0.0119586170      0
  0.1264099282    0.2279166005    0.0149482712      0
  0.1264099282    0.2734999207    0.0179379255      0
  0.1264099282    0.3190832408    0.0209275797      0
  0.1264099282    0.3646665609    0.0239172340      0
  0.1264099282    0.4102498810    0.0269068882      0
  0.1264099282    0.4558332011    0.0298965425      0
  0.1516919138   -0.4558332011   -0.0298965425      0
  0.1516919138   -0.4102498810   -0.0269068882      0
  0.1516919138   -0.3646665609   -0.0239172340      0
  0.1516919138   -0.3190832408   -0.0209275797      0
  0.1516919138   -0.2734999207   -0.0179379255      0
  0.1516919138   -0.2279166005   -0.0149482712      0
  0.1516919138   -0.1823332804   -0.0119586170      0
  0.1516919138   -0.1367499603   -0.0089689627      0
  0.1516919138   -0.0911666402   -0.0059793085      0
  0.1516919138   -0.0455833201   -0.0029896542      0
  0.1516919138    0.0000000000    0.0000000000      0
  0.1516919138    0.0455833201    0.0029896542      0
  0.1516919138    0.0911666402    0.0059793085      0
  0.1516919138    0.1367499603    0.0089689627      0
  0.1516919138    0.1823332804    0.0119586170      0
  0.1516919138    0.2279166005    0.0149482712      0
  0.1516919138    0.2734999207    0.0179379255      0
  0.1516919138    0.3190832408    0.0209275797      0
  0.1516919138    0.3646665609    0.0239172340      0
  0.1516919138    0.4102498810    0.0269068882      0
  0.1516919138    0.4558332011    0.0298965425      0
  0.1769738995   -0.4558332011   -0.0298965425      0
  0.1769738995   -0.4102498810   -0.0269068882      0
  0.1769738995   -0.3646665609   -0.0239172340      0
  0.1769738995   -0.3190832408   -0.0209275797      0
  0.1769738995   -0.2734999207   -0.0179379255      0
  0.1769738995   -0.2279166005   -0.0149482712      0
  0.1769738995   -0.1823332804   -0.0119586170      0
  0.1769738995   -0.1367499603   -0.0089689627      0
  0.1769738995   -0.0911666402   -0.0059793085      0
  0.1769738995   -0.0455833201   -0.0029896542      0
  0.1769738995    0.0000000000    0.0000000000      0
  0.1769738995    0.0455833201    0.0029896542      0
  0.1769738995    0.0911666402    0.0059793085      0
  0.1769738995    0.1367499603    0.0089689627      0
  0.1769738995    0.1823332804    0.0119586170      0
  0.1769738995    0.2279166005    0.0149482712      0
  0.1769738995    0.2734999207    0.0179379255      0
  0.1769738995    0.3190832408    0.0209275797      0
  0.1769738995    0.3646665609    0.0239172340      0
  0.1769738995    0.4102498810    0.0269068882      0
  0.1769738995    0.4558332011    0.0298965425      0
  0.2022558851   -0.4558332011   -0.0298965425      0
  0.2022558851   -0.4102498810   -0.0269068882      0
  0.2022558851   -0.3646665609   -0.0239172340      0
  0.2022558851   -0.3190832408   -0.0209275797      0
  0.2022558851   -0.2734999207   -0.0179379255      0
  0.2022558851   -0.2279166005   -0.0149482712      0
  0.2022558851   -0.1823332804   -0.0119586170      0
  0.2022558851   -0.1367499603   -0.0089689627      0
  0.2022558851   -0.0911666402   -0.0059793085      0
  0.2022558851   -0.0455833201   -0.0029896542      0
  0.2022558851    0.0000000000    0.0000000000      0
  0.2022558851    0.0455833201    0.0029896542      0
  0.2022558851    0.0911666402    0.0059793085      0
  0.2022558851    0.1367499603    0.0089689627      0
  0.2022558851    0.1823332804    0.0119586170      0
  0.2022558851    0.2279166005    0.0149482712      0
  0.2022558851    0.2734999207    0.0179379255      0
  0.2022558851    0.3190832408    0.0209275797      0
  0.2022558851    0.3646665609    0.0239172340      0
  0.2022558851    0.4102498810    0.0269068882      0
  0.2022558851    0.4558332011    0.0298965425      0
  0.2275378707   -0.4558332011   -0.0298965425      0
  0.2275378707   -0.4102498810   -0.0269068882      0
  0.2275378707   -0.3646665609   -0.0239172340      0
  0.2275378707   -0.3190832408   -0.0209275797      0
  0.2275378707   -0.2734999207   -0.0179379255      0
  0.2275378707   -0.2279166005   -0.0149482712      0
  0.2275378707   -0.1823332804   -0.0119586170      0
  0.2275378707   -0.1367499603   -0.0089689627      0
  0.2275378707   -0.0911666402   -0.0059793085      0
  0.2275378707   -0.0455833201   -0.0029896542      0
  0.2275378707    0.0000000000    0.0000000000      0
  0.2275378707    0.0455833201    0.0029896542      0
  0.2275378707    0.0911666402    0.0059793085      0
  0.2275378707    0.1367499603    0.0089689627      0
  0.2275378707    0.1823332804    0.0119586170      0