Generated mesh by mcu: xy  0.2000  0.2000 21 21
    441 # + of k-points from IBZKPT
Reciprocal lattice
   #This is where you add the k-mesh copied from IBZKPT file, this k-mesh is used to run SCF
 -0.0786225428   -0.0287778480    0.0000000000      0
 -0.0786225428   -0.0219689360    0.0000000000      0
 -0.0786225428   -0.0151600241    0.0000000000      0
 -0.0786225428   -0.0083511122    0.0000000000      0
 -0.0786225428   -0.0015422002    0.0000000000      0
 -0.0786225428    0.0052667117    0.0000000000      0
 -0.0786225428    0.0120756236    0.0000000000      0
 -0.0786225428    0.0188845356    0.0000000000      0
 -0.0786225428    0.0256934475    0.0000000000      0
 -0.0786225428    0.0325023595    0.0000000000      0
 -0.0786225428    0.0393112714    0.0000000000      0
 -0.0786225428    0.0461201833    0.0000000000      0
 -0.0786225428    0.0529290953    0.0000000000      0
 -0.0786225428    0.0597380072    0.0000000000      0
 -0.0786225428    0.0665469191    0.0000000000      0
 -0.0786225428    0.0733558311    0.0000000000      0
 -0.0786225428    0.0801647430    0.0000000000      0
 -0.0786225428    0.0869736550    0.0000000000      0
 -0.0786225428    0.0937825669    0.0000000000      0
 -0.0786225428    0.1005914788    0.0000000000      0
 -0.0786225428    0.1074003908    0.0000000000      0
 -0.0707602885   -0.0327089751    0.0000000000      0
 -0.0707602885   -0.0259000632    0.0000000000      0
 -0.0707602885   -0.0190911512    0.0000000000      0
 -0.0707602885   -0.0122822393    0.0000000000      0
 -0.0707602885   -0.0054733274    0.0000000000      0
 -0.0707602885    0.0013355846    0.0000000000      0
 -0.0707602885    0.0081444965    0.0000000000      0
 -0.0707602885    0.0149534084    0.0000000000      0
 -0.0707602885    0.0217623204    0.0000000000      0
 -0.0707602885    0.0285712323    0.0000000000      0
 -0.0707602885    0.0353801443    0.0000000000      0
 -0.0707602885    0.0421890562    0.0000000000      0
 -0.0707602885    0.0489979681    0.0000000000      0
 -0.0707602885    0.0558068801    0.0000000000      0
 -0.0707602885    0.0626157920    0.0000000000      0
 -0.0707602885    0.0694247039    0.0000000000      0
 -0.0707602885    0.0762336159    0.0000000000      0
 -0.0707602885    0.0830425278    0.0000000000      0
 -0.0707602885    0.0898514398    0.0000000000      0
 -0.0707602885    0.0966603517    0.0000000000      0
 -0.0707602885    0.1034692636    0.0000000000      0
 -0.0628980342   -0.0366401023    0.0000000000      0
 -0.0628980342   -0.0298311903    0.0000000000      0
 -0.0628980342   -0.0230222784    0.0000000000      0
 -0.0628980342   -0.0162133664    0.0000000000      0
 -0.0628980342   -0.0094044545    0.0000000000      0
 -0.0628980342   -0.0025955426    0.0000000000      0
 -0.0628980342    0.0042133694    0.0000000000      0
 -0.0628980342    0.0110222813    0.0000000000      0
 -0.0628980342    0.0178311932    0.0000000000      0
 -0.0628980342    0.0246401052    0.0000000000      0
 -0.0628980342    0.0314490171    0.0000000000      0
 -0.0628980342    0.0382579291    0.0000000000      0
 -0.0628980342    0.0450668410    0.0000000000      0
 -0.0628980342    0.0518757529    0.0000000000      0
 -0.0628980342    0.0586846649    0.0000000000      0
 -0.0628980342    0.0654935768    0.0000000000      0
 -0.0628980342    0.0723024887    0.0000000000      0
 -0.0628980342    0.0791114007    0.0000000000      0
 -0.0628980342    0.0859203126    0.0000000000      0
 -0.0628980342    0.0927292246    0.0000000000      0
 -0.0628980342    0.0995381365    0.0000000000      0
 -0.0550357800   -0.0405712294    0.0000000000      0
 -0.0550357800   -0.0337623175    0.0000000000      0
 -0.0550357800   -0.0269534055    0.0000000000      0
 -0.0550357800   -0.0201444936    0.0000000000      0
 -0.0550357800   -0.0133355816    0.0000000000      0
 -0.0550357800   -0.0065266697    0.0000000000      0
 -0.0550357800    0.0002822422    0.0000000000      0
 -0.0550357800    0.0070911542    0.0000000000      0
 -0.0550357800    0.0139000661    0.0000000000      0
 -0.0550357800    0.0207089780    0.0000000000      0
 -0.0550357800    0.0275178900    0.0000000000      0
 -0.0550357800    0.0343268019    0.0000000000      0
 -0.0550357800    0.0411357139    0.0000000000      0
 -0.0550357800    0.0479446258    0.0000000000      0
 -0.0550357800    0.0547535377    0.0000000000      0
 -0.0550357800    0.0615624497    0.0000000000      0
 -0.0550357800    0.0683713616    0.0000000000      0
 -0.0550357800    0.0751802735    0.0000000000      0
 -0.0550357800    0.0819891855    0.0000000000      0
 -0.0550357800    0.0887980974    0.0000000000      0
 -0.0550357800    0.0956070094    0.0000000000      0
 -0.0471735257   -0.0445023565    0.0000000000      0
 -0.0471735257   -0.0376934446    0.0000000000      0
 -0.0471735257   -0.0308845327    0.0000000000      0
 -0.0471735257   -0.0240756207    0.0000000000      0
 -0.0471735257   -0.0172667088    0.0000000000      0
 -0.0471735257   -0.0104577968    0.0000000000      0
 -0.0471735257   -0.0036488849    0.0000000000      0
 -0.0471735257    0.0031600270    0.0000000000      0
 -0.0471735257    0.0099689390    0.0000000000      0
 -0.0471735257    0.0167778509    0.0000000000      0
 -0.0471735257    0.0235867628    0.0000000000      0
 -0.0471735257    0.0303956748    0.0000000000      0
 -0.0471735257    0.0372045867    0.0000000000      0
 -0.0471735257    0.0440134987    0.0000000000      0
 -0.0471735257    0.0508224106    0.0000000000      0
 -0.0471735257    0.0576313225    0.0000000000      0
 -0.0471735257    0.0644402345    0.0000000000      0
 -0.0471735257    0.0712491464    0.0000000000      0
 -0.0471735257    0.0780580583    0.0000000000      0
 -0.0471735257    0.0848669703    0.0000000000      0
 -0.0471735257    0.0916758822    0.0000000000      0
 -0.0393112714   -0.0484334837    0.0000000000      0
 -0.0393112714   -0.0416245717    0.0000000000      0
 -0.0393112714   -0.0348156598    0.0000000000      0
 -0.0393112714   -0.0280067479    0.0000000000      0
 -0.0393112714   -0.0211978359    0.0000000000      0
 -0.0393112714   -0.0143889240    0.0000000000      0
 -0.0393112714   -0.0075800120    0.0000000000      0
 -0.0393112714   -0.0007711001    0.0000000000      0
 -0.0393112714    0.0060378118    0.0000000000      0
 -0.0393112714    0.0128467238    0.0000000000      0
 -0.0393112714    0.0196556357    0.0000000000      0
 -0.0393112714    0.0264645476    0.0000000000      0
 -0.0393112714    0.0332734596    0.0000000000      0
 -0.0393112714    0.0400823715    0.0000000000      0
 -0.0393112714    0.0468912834    0.0000000000      0
 -0.0393112714    0.0537001954    0.0000000000      0
 -0.0393112714    0.0605091073    0.0000000000      0
 -0.0393112714    0.0673180193    0.0000000000      0
 -0.0393112714    0.0741269312    0.0000000000      0
 -0.0393112714    0.0809358431    0.0000000000      0
 -0.0393112714    0.0877447551    0.0000000000      0
 -0.0314490171   -0.0523646108    0.0000000000      0
 -0.0314490171   -0.0455556989    0.0000000000      0
 -0.0314490171   -0.0387467869    0.0000000000      0
 -0.0314490171   -0.0319378750    0.0000000000      0
 -0.0314490171   -0.0251289631    0.0000000000      0
 -0.0314490171   -0.0183200511    0.0000000000      0
 -0.0314490171   -0.0115111392    0.0000000000      0
 -0.0314490171   -0.0047022273    0.0000000000      0
 -0.0314490171    0.0021066847    0.0000000000      0
 -0.0314490171    0.0089155966    0.0000000000      0
 -0.0314490171    0.0157245086    0.0000000000      0
 -0.0314490171    0.0225334205    0.0000000000      0
 -0.0314490171    0.0293423324    0.0000000000      0
 -0.0314490171    0.0361512444    0.0000000000      0
 -0.0314490171    0.0429601563    0.0000000000      0
 -0.0314490171    0.0497690682    0.0000000000      0
 -0.0314490171    0.0565779802    0.0000000000      0
 -0.0314490171    0.0633868921    0.0000000000      0
 -0.0314490171    0.0701958041    0.0000000000      0
 -0.0314490171    0.0770047160    0.0000000000      0
 -0.0314490171    0.0838136279    0.0000000000      0
 -0.0235867628   -0.0562957380    0.0000000000      0
 -0.0235867628   -0.0494868260    0.0000000000      0
 -0.0235867628   -0.0426779141    0.0000000000      0
 -0.0235867628   -0.0358690021    0.0000000000      0
 -0.0235867628   -0.0290600902    0.0000000000      0
 -0.0235867628   -0.0222511783    0.0000000000      0
 -0.0235867628   -0.0154422663    0.0000000000      0
 -0.0235867628   -0.0086333544    0.0000000000      0
 -0.0235867628   -0.0018244425    0.0000000000      0
 -0.0235867628    0.0049844695    0.0000000000      0
 -0.0235867628    0.0117933814    0.0000000000      0
 -0.0235867628    0.0186022934    0.0000000000      0
 -0.0235867628    0.0254112053    0.0000000000      0
 -0.0235867628    0.0322201172    0.0000000000      0
 -0.0235867628    0.0390290292    0.0000000000      0
 -0.0235867628    0.0458379411    0.0000000000      0
 -0.0235867628    0.0526468530    0.0000000000      0
 -0.0235867628    0.0594557650    0.0000000000      0
 -0.0235867628    0.0662646769    0.0000000000      0
 -0.0235867628    0.0730735889    0.0000000000      0
 -0.0235867628    0.0798825008    0.0000000000      0
 -0.0157245086   -0.0602268651    0.0000000000      0
 -0.0157245086   -0.0534179532    0.0000000000      0
 -0.0157245086   -0.0466090412    0.0000000000      0
 -0.0157245086   -0.0398001293    0.0000000000      0
 -0.0157245086   -0.0329912173    0.0000000000      0
 -0.0157245086   -0.0261823054    0.0000000000      0
 -0.0157245086   -0.0193733935    0.0000000000      0
 -0.0157245086   -0.0125644815    0.0000000000      0
 -0.0157245086   -0.0057555696    0.0000000000      0
 -0.0157245086    0.0010533423    0.0000000000      0
 -0.0157245086    0.0078622543    0.0000000000      0
 -0.0157245086    0.0146711662    0.0000000000      0
 -0.0157245086    0.0214800782    0.0000000000      0
 -0.0157245086    0.0282889901    0.0000000000      0
 -0.0157245086    0.0350979020    0.0000000000      0
 -0.0157245086    0.0419068140    0.0000000000      0
 -0.0157245086    0.0487157259    0.0000000000      0
 -0.0157245086    0.0555246378    0.0000000000      0
 -0.0157245086    0.0623335498    0.0000000000      0
 -0.0157245086    0.0691424617    0.0000000000      0
 -0.0157245086    0.0759513737    0.0000000000      0
 -0.0078622543   -0.0641579922    0.0000000000      0
 -0.0078622543   -0.0573490803    0.0000000000      0
 -0.0078622543   -0.0505401684    0.0000000000      0
 -0.0078622543   -0.0437312564    0.0000000000      0
 -0.0078622543   -0.0369223445    0.0000000000      0
 -0.0078622543   -0.0301134325    0.0000000000      0
 -0.0078622543   -0.0233045206    0.0000000000      0
 -0.0078622543   -0.0164956087    0.0000000000      0
 -0.0078622543   -0.0096866967    0.0000000000      0
 -0.0078622543   -0.0028777848    0.0000000000      0
 -0.0078622543    0.0039311271    0.0000000000      0
 -0.0078622543    0.0107400391    0.0000000000      0
 -0.0078622543    0.0175489510    0.0000000000      0
 -0.0078622543    0.0243578630    0.0000000000      0
 -0.0078622543    0.0311667749    0.0000000000      0
 -0.0078622543    0.0379756868    0.0000000000      0
 -0.0078622543    0.0447845988    0.0000000000      0
 -0.0078622543    0.0515935107    0.0000000000      0
 -0.0078622543    0.0584024226    0.0000000000      0
 -0.0078622543    0.0652113346    0.0000000000      0
 -0.0078622543    0.0720202465    0.0000000000      0
  0.0000000000   -0.0680891194    0.0000000000      0
  0.0000000000   -0.0612802074    0.0000000000      0
  0.0000000000   -0.0544712955    0.0000000000      0
  0.0000000000   -0.0476623836    0.0000000000      0
  0.0000000000   -0.0408534716    0.0000000000      0
  0.0000000000   -0.0340445597    0.0000000000      0
  0.0000000000   -0.0272356477    0.0000000000      0
  0.0000000000   -0.0204267358    0.0000000000      0
  0.0000000000   -0.0136178239    0.0000000000      0
  0.0000000000   -0.0068089119    0.0000000000      0
  0.0000000000    0.0000000000    0.0000000000      0
  0.0000000000    0.0068089119    0.0000000000      0
  0.0000000000    0.0136178239    0.0000000000      0
  0.0000000000    0.0204267358    0.0000000000      0
  0.0000000000    0.0272356477    0.0000000000      0
  0.0000000000    0.0340445597    0.0000000000      0
  0.0000000000    0.0408534716    0.0000000000      0
  0.0000000000    0.0476623836    0.0000000000      0
  0.0000000000    0.0544712955    0.0000000000      0
  0.0000000000    0.0612802074    0.0000000000      0
  0.0000000000    0.0680891194    0.0000000000      0
  0.0078622543   -0.0720202465    0.0000000000      0
  0.0078622543   -0.0652113346    0.0000000000      0
  0.0078622543   -0.0584024226    0.0000000000      0
  0.0078622543   -0.0515935107    0.0000000000      0
  0.0078622543   -0.0447845988    0.0000000000      0
  0.0078622543   -0.0379756868    0.0000000000      0
  0.0078622543   -0.0311667749    0.0000000000      0
  0.0078622543   -0.0243578630    0.0000000000      0
  0.0078622543   -0.0175489510    0.0000000000      0
  0.0078622543   -0.0107400391    0.0000000000      0
  0.0078622543   -0.0039311271    0.0000000000      0
  0.0078622543    0.0028777848    0.0000000000      0
  0.0078622543    0.0096866967    0.0000000000      0
  0.0078622543    0.0164956087    0.0000000000      0
  0.0078622543    0.0233045206    0.0000000000      0
  0.0078622543    0.0301134325    0.0000000000      0
  0.0078622543    0.0369223445    0.0000000000      0
  0.0078622543    0.0437312564    0.0000000000      0
  0.0078622543    0.0505401684    0.0000000000      0
  0.0078622543    0.0573490803    0.0000000000      0
  0.0078622543    0.0641579922    0.0000000000      0
  0.0157245086   -0.0759513737    0.0000000000      0
  0.0157245086   -0.0691424617    0.0000000000      0
  0.0157245086   -0.0623335498    0.0000000000      0
  0.0157245086   -0.0555246378    0.0000000000      0
  0.0157245086   -0.0487157259    0.0000000000      0
  0.0157245086   -0.0419068140    0.0000000000      0
  0.0157245086   -0.0350979020    0.0000000000      0
  0.0157245086   -0.0282889901    0.0000000000      0
  0.0157245086   -0.0214800782    0.0000000000      0
  0.0157245086   -0.0146711662    0.0000000000      0
  0.0157245086   -0.0078622543    0.0000000000      0
  0.0157245086   -0.0010533423    0.0000000000      0
  0.0157245086    0.0057555696    0.0000000000      0
  0.0157245086    0.0125644815    0.0000000000      0
  0.0157245086    0.0193733935    0.0000000000      0
  0.0157245086    0.0261823054    0.0000000000      0
  0.0157245086    0.0329912173    0.0000000000      0
  0.0157245086    0.0398001293    0.0000000000      0
  0.0157245086    0.0466090412    0.0000000000      0
  0.0157245086    0.0534179532    0.0000000000      0
  0.0157245086    0.0602268651    0.0000000000      0
  0.0235867628   -0.0798825008    0.0000000000      0
  0.0235867628   -0.0730735889    0.0000000000      0
  0.0235867628   -0.0662646769    0.0000000000      0
  0.0235867628   -0.0594557650    0.0000000000      0
  0.0235867628   -0.0526468530    0.0000000000      0
  0.0235867628   -0.0458379411    0.0000000000      0
  0.0235867628   -0.0390290292    0.0000000000      0
  0.0235867628   -0.0322201172    0.0000000000      0
  0.0235867628   -0.0254112053    0.0000000000      0
  0.0235867628   -0.0186022934    0.0000000000      0
  0.0235867628   -0.0117933814    0.0000000000      0
  0.0235867628   -0.0049844695    0.0000000000      0
  0.0235867628    0.0018244425    0.0000000000      0
  0.0235867628    0.0086333544    0.0000000000      0
  0.0235867628    0.0154422663    0.0000000000      0
  0.0235867628    0.0222511783    0.0000000000      0
  0.0235867628    0.0290600902    0.0000000000      0
  0.0235867628    0.0358690021    0.0000000000      0
  0.0235867628    0.0426779141    0.0000000000      0
  0.0235867628    0.0494868260    0.0000000000      0
  0.0235867628    0.0562957380    0.0000000000      0
  0.0314490171   -0.0838136279    0.0000000000      0
  0.0314490171   -0.0770047160    0.0000000000      0
  0.0314490171   -0.0701958041    0.0000000000      0
  0.0314490171   -0.0633868921    0.0000000000      0
  0.0314490171   -0.0565779802    0.0000000000      0
  0.0314490171   -0.0497690682    0.0000000000      0
  0.0314490171   -0.0429601563    0.0000000000      0
  0.0314490171   -0.0361512444    0.0000000000      0
  0.0314490171   -0.0293423324    0.0000000000      0
  0.0314490171   -0.0225334205    0.0000000000      0
  0.0314490171   -0.0157245086    0.0000000000      0
  0.0314490171   -0.0089155966    0.0000000000      0
  0.0314490171   -0.0021066847    0.0000000000      0
  0.0314490171    0.0047022273    0.0000000000      0
  0.0314490171    0.0115111392    0.0000000000      0
  0.0314490171    0.0183200511    0.0000000000      0
  0.0314490171    0.0251289631    0.0000000000      0
  0.0314490171    0.0319378750    0.0000000000      0
  0.0314490171    0.0387467869    0.0000000000      0
  0.0314490171    0.0455556989    0.0000000000      0
  0.0314490171    0.0523646108    0.0000000000      0
  0.0393112714   -0.0877447551    0.0000000000      0
  0.0393112714   -0.0809358431    0.0000000000      0
  0.0393112714   -0.0741269312    0.0000000000      0
  0.0393112714   -0.0673180193    0.0000000000      0
  0.0393112714   -0.0605091073    0.0000000000      0
  0.0393112714   -0.0537001954    0.0000000000      0
  0.0393112714   -0.0468912834    0.0000000000      0
  0.0393112714   -0.0400823715    0.0000000000      0
  0.0393112714   -0.0332734596    0.0000000000      0
  0.0393112714   -0.0264645476    0.0000000000      0
  0.0393112714   -0.0196556357    0.0000000000      0
  0.0393112714   -0.0128467238    0.0000000000      0
  0.0393112714   -0.0060378118    0.0000000000      0
  0.0393112714    0.0007711001    0.0000000000      0
  0.0393112714    0.0075800120    0.0000000000      0
  0.0393112714    0.0143889240    0.0000000000      0
  0.0393112714    0.0211978359    0.0000000000      0
  0.0393112714    0.0280067479    0.0000000000      0
  0.0393112714    0.0348156598    0.0000000000      0
  0.0393112714    0.0416245717    0.0000000000      0
  0.0393112714    0.0484334837    0.0000000000      0
  0.0471735257   -0.0916758822    0.0000000000      0
  0.0471735257   -0.0848669703    0.0000000000      0
  0.0471735257   -0.0780580583    0.0000000000      0
  0.0471735257   -0.0712491464    0.0000000000      0
  0.0471735257   -0.0644402345    0.0000000000      0
  0.0471735257   -0.0576313225    0.0000000000      0
  0.0471735257   -0.0508224106    0.0000000000      0
  0.0471735257   -0.0440134987    0.0000000000      0
  0.0471735257   -0.0372045867    0.0000000000      0
  0.0471735257   -0.0303956748    0.0000000000      0
  0.0471735257   -0.0235867628    0.0000000000      0
  0.0471735257   -0.0167778509    0.0000000000      0
  0.0471735257   -0.0099689390    0.0000000000      0
  0.0471735257   -0.0031600270    0.0000000000      0
  0.0471735257    0.0036488849    0.0000000000      0
  0.0471735257    0.0104577968    0.0000000000      0
  0.0471735257    0.0172667088    0.0000000000      0
  0.0471735257    0.0240756207    0.0000000000      0
  0.0471735257    0.0308845327    0.0000000000      0
  0.0471735257    0.0376934446    0.0000000000      0
  0.0471735257    0.0445023565    0.0000000000      0
  0.0550357800   -0.0956070094    0.0000000000      0
  0.0550357800   -0.0887980974    0.0000000000      0
  0.0550357800   -0.0819891855    0.0000000000      0
  0.0550357800   -0.0751802735    0.0000000000      0
  0.0550357800   -0.0683713616    0.0000000000      0
  0.0550357800   -0.0615624497    0.0000000000      0
  0.0550357800   -0.0547535377    0.0000000000      0
  0.0550357800   -0.0479446258    0.0000000000      0
  0.0550357800   -0.0411357139    0.0000000000      0
  0.0550357800   -0.0343268019    0.0000000000      0
  0.0550357800   -0.0275178900    0.0000000000      0
  0.0550357800   -0.0207089780    0.0000000000      0
  0.0550357800   -0.0139000661    0.0000000000      0
  0.0550357800   -0.0070911542    0.0000000000      0
  0.0550357800   -0.0002822422    0.0000000000      0
  0.0550357800    0.0065266697    0.0000000000      0
  0.0550357800    0.0133355816    0.0000000000      0
  0.0550357800    0.0201444936    0.0000000000      0
  0.0550357800    0.0269534055    0.0000000000      0
  0.0550357800    0.0337623175    0.0000000000      0
  0.0550357800    0.0405712294    0.0000000000      0
  0.0628980342   -0.0995381365    0.0000000000      0
  0.0628980342   -0.0927292246    0.0000000000      0
  0.0628980342   -0.0859203126    0.0000000000      0
  0.0628980342   -0.0791114007    0.0000000000      0
  0.0628980342   -0.0723024887    0.0000000000      0
  0.0628980342   -0.0654935768    0.0000000000      0
  0.0628980342   -0.0586846649    0.0000000000      0
  0.0628980342   -0.0518757529    0.0000000000      0
  0.0628980342   -0.0450668410    0.0000000000      0
  0.0628980342   -0.0382579291    0.0000000000      0
  0.0628980342   -0.0314490171    0.0000000000      0
  0.0628980342   -0.0246401052    0.0000000000      0
  0.0628980342   -0.0178311932    0.0000000000      0
  0.0628980342   -0.0110222813    0.0000000000      0
  0.0628980342   -0.0042133694    0.0000000000      0
  0.0628980342    0.0025955426    0.0000000000      0
  0.0628980342    0.0094044545    0.0000000000      0
  0.0628980342    0.0162133664    0.0000000000      0
  0.0628980342    0.0230222784    0.0000000000      0
  0.0628980342    0.0298311903    0.0000000000      0
  0.0628980342    0.0366401023    0.0000000000      0
  0.0707602885   -0.1034692636    0.0000000000      0
  0.0707602885   -0.0966603517    0.0000000000      0
  0.0707602885   -0.0898514398    0.0000000000      0
  0.0707602885   -0.0830425278    0.0000000000      0
  0.0707602885   -0.0762336159    0.0000000000      0
  0.0707602885   -0.0694247039    0.0000000000      0
  0.0707602885   -0.0626157920    0.0000000000      0
  0.0707602885   -0.0558068801    0.0000000000      0
  0.0707602885   -0.0489979681    0.0000000000      0
  0.0707602885   -0.0421890562    0.0000000000      0
  0.0707602885   -0.0353801443    0.0000000000      0
  0.0707602885   -0.0285712323    0.0000000000      0
  0.0707602885   -0.0217623204    0.0000000000      0
  0.0707602885   -0.0149534084    0.0000000000      0
  0.0707602885   -0.0081444965    0.0000000000      0
  0.0707602885   -0.0013355846    0.0000000000      0
  0.0707602885    0.0054733274    0.0000000000      0
  0.0707602885    0.0122822393    0.0000000000      0
  0.0707602885    0.0190911512    0.0000000000      0
  0.0707602885    0.0259000632    0.0000000000      0
  0.0707602885    0.0327089751    0.0000000000      0
  0.0786225428   -0.1074003908    0.0000000000      0
  0.0786225428   -0.1005914788    0.0000000000      0
  0.0786225428   -0.0937825669    0.0000000000      0
  0.0786225428   -0.0869736550    0.0000000000      0
  0.0786225428   -0.0801647430    0.0000000000      0
  0.0786225428   -0.0733558311    0.0000000000      0
  0.0786225428   -0.0665469191    0.0000000000      0
  0.0786225428   -0.0597380072    0.0000000000      0
  0.0786225428   -0.0529290953    0.0000000000      0
  0.0786225428   -0.0461201833    0.0000000000      0
  0.0786225428   -0.0393112714    0.0000000000      0
  0.0786225428   -0.0325023595    0.0000000000      0
  0.0786225428   -0.0256934475    0.0000000000      0
  0.0786225428   -0.0188845356    0.0000000000      0
  0.0786225428   -0.0120756236    0.0000000000      0
  0.0786225428   -0.0052667117    0.0000000000      0
  0.0786225428    0.0015422002    0.0000000000      0
  0.0786225428    0.0083511122    0.0000000000      0
  0.0786225428    0.0151600241    0.0000000000      0
  0.0786225428    0.0219689360    0.0000000000      0
  0.0786225428    0.0287778480    0.0000000000      0
