New_Crystal
1.0
        2.4700000286         0.0000000000         0.0000000000
       -1.2350000143         2.1390827721         0.0000000000
        0.0000000000         0.0000000000        20.0000000000
    C
    2
Direct
     0.666666716         0.333333336         0.500000000
     0.333333308         0.666666616         0.500000000
