Generated mesh by mcu:  xy 0.2000  0.2000 21 21
    541 # + of k-points from IBZKPT
Reciprocal lattice
    0.00000000000000    0.00000000000000    0.00000000000000             1
    0.10000000000000   -0.00000000000000    0.00000000000000             1
    0.20000000000000   -0.00000000000000    0.00000000000000             1
    0.30000000000000   -0.00000000000000    0.00000000000000             1
    0.40000000000000   -0.00000000000000    0.00000000000000             1
    0.50000000000000   -0.00000000000000    0.00000000000000             1
   -0.40000000000000    0.00000000000000    0.00000000000000             1
   -0.30000000000000    0.00000000000000    0.00000000000000             1
   -0.20000000000000    0.00000000000000    0.00000000000000             1
   -0.10000000000000    0.00000000000000    0.00000000000000             1
    0.00000000000000    0.10000000000000    0.00000000000000             1
    0.10000000000000    0.10000000000000    0.00000000000000             1
    0.20000000000000    0.10000000000000    0.00000000000000             1
    0.30000000000000    0.10000000000000    0.00000000000000             1
    0.40000000000000    0.10000000000000    0.00000000000000             1
    0.50000000000000    0.10000000000000    0.00000000000000             1
   -0.40000000000000    0.10000000000000    0.00000000000000             1
   -0.30000000000000    0.10000000000000    0.00000000000000             1
   -0.20000000000000    0.10000000000000    0.00000000000000             1
   -0.10000000000000    0.10000000000000    0.00000000000000             1
    0.00000000000000    0.20000000000000    0.00000000000000             1
    0.10000000000000    0.20000000000000    0.00000000000000             1
    0.20000000000000    0.20000000000000    0.00000000000000             1
    0.30000000000000    0.20000000000000    0.00000000000000             1
    0.40000000000000    0.20000000000000    0.00000000000000             1
    0.50000000000000    0.20000000000000    0.00000000000000             1
   -0.40000000000000    0.20000000000000    0.00000000000000             1
   -0.30000000000000    0.20000000000000    0.00000000000000             1
   -0.20000000000000    0.20000000000000    0.00000000000000             1
   -0.10000000000000    0.20000000000000    0.00000000000000             1
    0.00000000000000    0.30000000000000    0.00000000000000             1
    0.10000000000000    0.30000000000000    0.00000000000000             1
    0.20000000000000    0.30000000000000    0.00000000000000             1
    0.30000000000000    0.30000000000000    0.00000000000000             1
    0.40000000000000    0.30000000000000    0.00000000000000             1
    0.50000000000000    0.30000000000000    0.00000000000000             1
   -0.40000000000000    0.30000000000000    0.00000000000000             1
   -0.30000000000000    0.30000000000000    0.00000000000000             1
   -0.20000000000000    0.30000000000000    0.00000000000000             1
   -0.10000000000000    0.30000000000000    0.00000000000000             1
    0.00000000000000    0.40000000000000    0.00000000000000             1
    0.10000000000000    0.40000000000000    0.00000000000000             1
    0.20000000000000    0.40000000000000    0.00000000000000             1
    0.30000000000000    0.40000000000000    0.00000000000000             1
    0.40000000000000    0.40000000000000    0.00000000000000             1
    0.50000000000000    0.40000000000000    0.00000000000000             1
   -0.40000000000000    0.40000000000000    0.00000000000000             1
   -0.30000000000000    0.40000000000000    0.00000000000000             1
   -0.20000000000000    0.40000000000000    0.00000000000000             1
   -0.10000000000000    0.40000000000000    0.00000000000000             1
    0.00000000000000    0.50000000000000    0.00000000000000             1
    0.10000000000000    0.50000000000000    0.00000000000000             1
    0.20000000000000    0.50000000000000    0.00000000000000             1
    0.30000000000000    0.50000000000000    0.00000000000000             1
    0.40000000000000    0.50000000000000    0.00000000000000             1
    0.50000000000000    0.50000000000000    0.00000000000000             1
   -0.40000000000000    0.50000000000000    0.00000000000000             1
   -0.30000000000000    0.50000000000000    0.00000000000000             1
   -0.20000000000000    0.50000000000000    0.00000000000000             1
   -0.10000000000000    0.50000000000000    0.00000000000000             1
    0.00000000000000   -0.40000000000000    0.00000000000000             1
    0.10000000000000   -0.40000000000000    0.00000000000000             1
    0.20000000000000   -0.40000000000000    0.00000000000000             1
    0.30000000000000   -0.40000000000000    0.00000000000000             1
    0.40000000000000   -0.40000000000000    0.00000000000000             1
    0.50000000000000   -0.40000000000000    0.00000000000000             1
   -0.40000000000000   -0.40000000000000    0.00000000000000             1
   -0.30000000000000   -0.40000000000000    0.00000000000000             1
   -0.20000000000000   -0.40000000000000    0.00000000000000             1
   -0.10000000000000   -0.40000000000000    0.00000000000000             1
    0.00000000000000   -0.30000000000000    0.00000000000000             1
    0.10000000000000   -0.30000000000000    0.00000000000000             1
    0.20000000000000   -0.30000000000000    0.00000000000000             1
    0.30000000000000   -0.30000000000000    0.00000000000000             1
    0.40000000000000   -0.30000000000000    0.00000000000000             1
    0.50000000000000   -0.30000000000000    0.00000000000000             1
   -0.40000000000000   -0.30000000000000    0.00000000000000             1
   -0.30000000000000   -0.30000000000000    0.00000000000000             1
   -0.20000000000000   -0.30000000000000    0.00000000000000             1
   -0.10000000000000   -0.30000000000000    0.00000000000000             1
    0.00000000000000   -0.20000000000000    0.00000000000000             1
    0.10000000000000   -0.20000000000000    0.00000000000000             1
    0.20000000000000   -0.20000000000000    0.00000000000000             1
    0.30000000000000   -0.20000000000000    0.00000000000000             1
    0.40000000000000   -0.20000000000000    0.00000000000000             1
    0.50000000000000   -0.20000000000000    0.00000000000000             1
   -0.40000000000000   -0.20000000000000    0.00000000000000             1
   -0.30000000000000   -0.20000000000000    0.00000000000000             1
   -0.20000000000000   -0.20000000000000    0.00000000000000             1
   -0.10000000000000   -0.20000000000000    0.00000000000000             1
    0.00000000000000   -0.10000000000000    0.00000000000000             1
    0.10000000000000   -0.10000000000000    0.00000000000000             1
    0.20000000000000   -0.10000000000000    0.00000000000000             1
    0.30000000000000   -0.10000000000000    0.00000000000000             1
    0.40000000000000   -0.10000000000000    0.00000000000000             1
    0.50000000000000   -0.10000000000000    0.00000000000000             1
   -0.40000000000000   -0.10000000000000    0.00000000000000             1
   -0.30000000000000   -0.10000000000000    0.00000000000000             1
   -0.20000000000000   -0.10000000000000    0.00000000000000             1
   -0.10000000000000   -0.10000000000000    0.00000000000000             1
  0.2547107905    0.3045554853    0.0000000000      0
  0.2547107905    0.3113643973    0.0000000000      0
  0.2547107905    0.3181733092    0.0000000000      0
  0.2547107905    0.3249822211    0.0000000000      0
  0.2547107905    0.3317911331    0.0000000000      0
  0.2547107905    0.3386000450    0.0000000000      0
  0.2547107905    0.3454089569    0.0000000000      0
  0.2547107905    0.3522178689    0.0000000000      0
  0.2547107905    0.3590267808    0.0000000000      0
  0.2547107905    0.3658356928    0.0000000000      0
  0.2547107905    0.3726446047    0.0000000000      0
  0.2547107905    0.3794535166    0.0000000000      0
  0.2547107905    0.3862624286    0.0000000000      0
  0.2547107905    0.3930713405    0.0000000000      0
  0.2547107905    0.3998802524    0.0000000000      0
  0.2547107905    0.4066891644    0.0000000000      0
  0.2547107905    0.4134980763    0.0000000000      0
  0.2547107905    0.4203069883    0.0000000000      0
  0.2547107905    0.4271159002    0.0000000000      0
  0.2547107905    0.4339248121    0.0000000000      0
  0.2547107905    0.4407337241    0.0000000000      0
  0.2625730448    0.3006243582    0.0000000000      0
  0.2625730448    0.3074332701    0.0000000000      0
  0.2625730448    0.3142421821    0.0000000000      0
  0.2625730448    0.3210510940    0.0000000000      0
  0.2625730448    0.3278600059    0.0000000000      0
  0.2625730448    0.3346689179    0.0000000000      0
  0.2625730448    0.3414778298    0.0000000000      0
  0.2625730448    0.3482867417    0.0000000000      0
  0.2625730448    0.3550956537    0.0000000000      0
  0.2625730448    0.3619045656    0.0000000000      0
  0.2625730448    0.3687134776    0.0000000000      0
  0.2625730448    0.3755223895    0.0000000000      0
  0.2625730448    0.3823313014    0.0000000000      0
  0.2625730448    0.3891402134    0.0000000000      0
  0.2625730448    0.3959491253    0.0000000000      0
  0.2625730448    0.4027580372    0.0000000000      0
  0.2625730448    0.4095669492    0.0000000000      0
  0.2625730448    0.4163758611    0.0000000000      0
  0.2625730448    0.4231847731    0.0000000000      0
  0.2625730448    0.4299936850    0.0000000000      0
  0.2625730448    0.4368025969    0.0000000000      0
  0.2704352991    0.2966932310    0.0000000000      0
  0.2704352991    0.3035021430    0.0000000000      0
  0.2704352991    0.3103110549    0.0000000000      0
  0.2704352991    0.3171199669    0.0000000000      0
  0.2704352991    0.3239288788    0.0000000000      0
  0.2704352991    0.3307377907    0.0000000000      0
  0.2704352991    0.3375467027    0.0000000000      0
  0.2704352991    0.3443556146    0.0000000000      0
  0.2704352991    0.3511645265    0.0000000000      0
  0.2704352991    0.3579734385    0.0000000000      0
  0.2704352991    0.3647823504    0.0000000000      0
  0.2704352991    0.3715912624    0.0000000000      0
  0.2704352991    0.3784001743    0.0000000000      0
  0.2704352991    0.3852090862    0.0000000000      0
  0.2704352991    0.3920179982    0.0000000000      0
  0.2704352991    0.3988269101    0.0000000000      0
  0.2704352991    0.4056358220    0.0000000000      0
  0.2704352991    0.4124447340    0.0000000000      0
  0.2704352991    0.4192536459    0.0000000000      0
  0.2704352991    0.4260625579    0.0000000000      0
  0.2704352991    0.4328714698    0.0000000000      0
  0.2782975533    0.2927621039    0.0000000000      0
  0.2782975533    0.2995710158    0.0000000000      0
  0.2782975533    0.3063799278    0.0000000000      0
  0.2782975533    0.3131888397    0.0000000000      0
  0.2782975533    0.3199977517    0.0000000000      0
  0.2782975533    0.3268066636    0.0000000000      0
  0.2782975533    0.3336155755    0.0000000000      0
  0.2782975533    0.3404244875    0.0000000000      0
  0.2782975533    0.3472333994    0.0000000000      0
  0.2782975533    0.3540423113    0.0000000000      0
  0.2782975533    0.3608512233    0.0000000000      0
  0.2782975533    0.3676601352    0.0000000000      0
  0.2782975533    0.3744690472    0.0000000000      0
  0.2782975533    0.3812779591    0.0000000000      0
  0.2782975533    0.3880868710    0.0000000000      0
  0.2782975533    0.3948957830    0.0000000000      0
  0.2782975533    0.4017046949    0.0000000000      0
  0.2782975533    0.4085136068    0.0000000000      0
  0.2782975533    0.4153225188    0.0000000000      0
  0.2782975533    0.4221314307    0.0000000000      0
  0.2782975533    0.4289403427    0.0000000000      0
  0.2861598076    0.2888309768    0.0000000000      0
  0.2861598076    0.2956398887    0.0000000000      0
  0.2861598076    0.3024488006    0.0000000000      0
  0.2861598076    0.3092577126    0.0000000000      0
  0.2861598076    0.3160666245    0.0000000000      0
  0.2861598076    0.3228755365    0.0000000000      0
  0.2861598076    0.3296844484    0.0000000000      0
  0.2861598076    0.3364933603    0.0000000000      0
  0.2861598076    0.3433022723    0.0000000000      0
  0.2861598076    0.3501111842    0.0000000000      0
  0.2861598076    0.3569200961    0.0000000000      0
  0.2861598076    0.3637290081    0.0000000000      0
  0.2861598076    0.3705379200    0.0000000000      0
  0.2861598076    0.3773468320    0.0000000000      0
  0.2861598076    0.3841557439    0.0000000000      0
  0.2861598076    0.3909646558    0.0000000000      0
  0.2861598076    0.3977735678    0.0000000000      0
  0.2861598076    0.4045824797    0.0000000000      0
  0.2861598076    0.4113913916    0.0000000000      0
  0.2861598076    0.4182003036    0.0000000000      0
  0.2861598076    0.4250092155    0.0000000000      0
  0.2940220619    0.2848998496    0.0000000000      0
  0.2940220619    0.2917087616    0.0000000000      0
  0.2940220619    0.2985176735    0.0000000000      0
  0.2940220619    0.3053265854    0.0000000000      0
  0.2940220619    0.3121354974    0.0000000000      0
  0.2940220619    0.3189444093    0.0000000000      0
  0.2940220619    0.3257533213    0.0000000000      0
  0.2940220619    0.3325622332    0.0000000000      0
  0.2940220619    0.3393711451    0.0000000000      0
  0.2940220619    0.3461800571    0.0000000000      0
  0.2940220619    0.3529889690    0.0000000000      0
  0.2940220619    0.3597978809    0.0000000000      0
  0.2940220619    0.3666067929    0.0000000000      0
  0.2940220619    0.3734157048    0.0000000000      0
  0.2940220619    0.3802246167    0.0000000000      0
  0.2940220619    0.3870335287    0.0000000000      0
  0.2940220619    0.3938424406    0.0000000000      0
  0.2940220619    0.4006513526    0.0000000000      0
  0.2940220619    0.4074602645    0.0000000000      0
  0.2940220619    0.4142691764    0.0000000000      0
  0.2940220619    0.4210780884    0.0000000000      0
  0.3018843162    0.2809687225    0.0000000000      0
  0.3018843162    0.2877776344    0.0000000000      0
  0.3018843162    0.2945865464    0.0000000000      0
  0.3018843162    0.3013954583    0.0000000000      0
  0.3018843162    0.3082043702    0.0000000000      0
  0.3018843162    0.3150132822    0.0000000000      0
  0.3018843162    0.3218221941    0.0000000000      0
  0.3018843162    0.3286311060    0.0000000000      0
  0.3018843162    0.3354400180    0.0000000000      0
  0.3018843162    0.3422489299    0.0000000000      0
  0.3018843162    0.3490578419    0.0000000000      0
  0.3018843162    0.3558667538    0.0000000000      0
  0.3018843162    0.3626756657    0.0000000000      0
  0.3018843162    0.3694845777    0.0000000000      0
  0.3018843162    0.3762934896    0.0000000000      0
  0.3018843162    0.3831024015    0.0000000000      0
  0.3018843162    0.3899113135    0.0000000000      0
  0.3018843162    0.3967202254    0.0000000000      0
  0.3018843162    0.4035291374    0.0000000000      0
  0.3018843162    0.4103380493    0.0000000000      0
  0.3018843162    0.4171469612    0.0000000000      0
  0.3097465705    0.2770375953    0.0000000000      0
  0.3097465705    0.2838465073    0.0000000000      0
  0.3097465705    0.2906554192    0.0000000000      0
  0.3097465705    0.2974643312    0.0000000000      0
  0.3097465705    0.3042732431    0.0000000000      0
  0.3097465705    0.3110821550    0.0000000000      0
  0.3097465705    0.3178910670    0.0000000000      0
  0.3097465705    0.3246999789    0.0000000000      0
  0.3097465705    0.3315088908    0.0000000000      0
  0.3097465705    0.3383178028    0.0000000000      0
  0.3097465705    0.3451267147    0.0000000000      0
  0.3097465705    0.3519356267    0.0000000000      0
  0.3097465705    0.3587445386    0.0000000000      0
  0.3097465705    0.3655534505    0.0000000000      0
  0.3097465705    0.3723623625    0.0000000000      0
  0.3097465705    0.3791712744    0.0000000000      0
  0.3097465705    0.3859801863    0.0000000000      0
  0.3097465705    0.3927890983    0.0000000000      0
  0.3097465705    0.3995980102    0.0000000000      0
  0.3097465705    0.4064069222    0.0000000000      0
  0.3097465705    0.4132158341    0.0000000000      0
  0.3176088247    0.2731064682    0.0000000000      0
  0.3176088247    0.2799153801    0.0000000000      0
  0.3176088247    0.2867242921    0.0000000000      0
  0.3176088247    0.2935332040    0.0000000000      0
  0.3176088247    0.3003421160    0.0000000000      0
  0.3176088247    0.3071510279    0.0000000000      0
  0.3176088247    0.3139599398    0.0000000000      0
  0.3176088247    0.3207688518    0.0000000000      0
  0.3176088247    0.3275777637    0.0000000000      0
  0.3176088247    0.3343866756    0.0000000000      0
  0.3176088247    0.3411955876    0.0000000000      0
  0.3176088247    0.3480044995    0.0000000000      0
  0.3176088247    0.3548134115    0.0000000000      0
  0.3176088247    0.3616223234    0.0000000000      0
  0.3176088247    0.3684312353    0.0000000000      0
  0.3176088247    0.3752401473    0.0000000000      0
  0.3176088247    0.3820490592    0.0000000000      0
  0.3176088247    0.3888579711    0.0000000000      0
  0.3176088247    0.3956668831    0.0000000000      0
  0.3176088247    0.4024757950    0.0000000000      0
  0.3176088247    0.4092847070    0.0000000000      0
  0.3254710790    0.2691753411    0.0000000000      0
  0.3254710790    0.2759842530    0.0000000000      0
  0.3254710790    0.2827931649    0.0000000000      0
  0.3254710790    0.2896020769    0.0000000000      0
  0.3254710790    0.2964109888    0.0000000000      0
  0.3254710790    0.3032199008    0.0000000000      0
  0.3254710790    0.3100288127    0.0000000000      0
  0.3254710790    0.3168377246    0.0000000000      0
  0.3254710790    0.3236466366    0.0000000000      0
  0.3254710790    0.3304555485    0.0000000000      0
  0.3254710790    0.3372644604    0.0000000000      0
  0.3254710790    0.3440733724    0.0000000000      0
  0.3254710790    0.3508822843    0.0000000000      0
  0.3254710790    0.3576911963    0.0000000000      0
  0.3254710790    0.3645001082    0.0000000000      0
  0.3254710790    0.3713090201    0.0000000000      0
  0.3254710790    0.3781179321    0.0000000000      0
  0.3254710790    0.3849268440    0.0000000000      0
  0.3254710790    0.3917357559    0.0000000000      0
  0.3254710790    0.3985446679    0.0000000000      0
  0.3254710790    0.4053535798    0.0000000000      0
  0.3333333333    0.2652442139    0.0000000000      0
  0.3333333333    0.2720531259    0.0000000000      0
  0.3333333333    0.2788620378    0.0000000000      0
  0.3333333333    0.2856709497    0.0000000000      0
  0.3333333333    0.2924798617    0.0000000000      0
  0.3333333333    0.2992887736    0.0000000000      0
  0.3333333333    0.3060976856    0.0000000000      0
  0.3333333333    0.3129065975    0.0000000000      0
  0.3333333333    0.3197155094    0.0000000000      0
  0.3333333333    0.3265244214    0.0000000000      0
  0.3333333333    0.3333333333    0.0000000000      0
  0.3333333333    0.3401422452    0.0000000000      0
  0.3333333333    0.3469511572    0.0000000000      0
  0.3333333333    0.3537600691    0.0000000000      0
  0.3333333333    0.3605689810    0.0000000000      0
  0.3333333333    0.3673778930    0.0000000000      0
  0.3333333333    0.3741868049    0.0000000000      0
  0.3333333333    0.3809957169    0.0000000000      0
  0.3333333333    0.3878046288    0.0000000000      0
  0.3333333333    0.3946135407    0.0000000000      0
  0.3333333333    0.4014224527    0.0000000000      0
  0.3411955876    0.2613130868    0.0000000000      0
  0.3411955876    0.2681219987    0.0000000000      0
  0.3411955876    0.2749309107    0.0000000000      0
  0.3411955876    0.2817398226    0.0000000000      0
  0.3411955876    0.2885487345    0.0000000000      0
  0.3411955876    0.2953576465    0.0000000000      0
  0.3411955876    0.3021665584    0.0000000000      0
  0.3411955876    0.3089754703    0.0000000000      0
  0.3411955876    0.3157843823    0.0000000000      0
  0.3411955876    0.3225932942    0.0000000000      0
  0.3411955876    0.3294022062    0.0000000000      0
  0.3411955876    0.3362111181    0.0000000000      0
  0.3411955876    0.3430200300    0.0000000000      0
  0.3411955876    0.3498289420    0.0000000000      0
  0.3411955876    0.3566378539    0.0000000000      0
  0.3411955876    0.3634467658    0.0000000000      0
  0.3411955876    0.3702556778    0.0000000000      0
  0.3411955876    0.3770645897    0.0000000000      0
  0.3411955876    0.3838735017    0.0000000000      0
  0.3411955876    0.3906824136    0.0000000000      0
  0.3411955876    0.3974913255    0.0000000000      0
  0.3490578419    0.2573819596    0.0000000000      0
  0.3490578419    0.2641908716    0.0000000000      0
  0.3490578419    0.2709997835    0.0000000000      0
  0.3490578419    0.2778086955    0.0000000000      0
  0.3490578419    0.2846176074    0.0000000000      0
  0.3490578419    0.2914265193    0.0000000000      0
  0.3490578419    0.2982354313    0.0000000000      0
  0.3490578419    0.3050443432    0.0000000000      0
  0.3490578419    0.3118532551    0.0000000000      0
  0.3490578419    0.3186621671    0.0000000000      0
  0.3490578419    0.3254710790    0.0000000000      0
  0.3490578419    0.3322799910    0.0000000000      0
  0.3490578419    0.3390889029    0.0000000000      0
  0.3490578419    0.3458978148    0.0000000000      0
  0.3490578419    0.3527067268    0.0000000000      0
  0.3490578419    0.3595156387    0.0000000000      0
  0.3490578419    0.3663245506    0.0000000000      0
  0.3490578419    0.3731334626    0.0000000000      0
  0.3490578419    0.3799423745    0.0000000000      0
  0.3490578419    0.3867512865    0.0000000000      0
  0.3490578419    0.3935601984    0.0000000000      0
  0.3569200961    0.2534508325    0.0000000000      0
  0.3569200961    0.2602597444    0.0000000000      0
  0.3569200961    0.2670686564    0.0000000000      0
  0.3569200961    0.2738775683    0.0000000000      0
  0.3569200961    0.2806864803    0.0000000000      0
  0.3569200961    0.2874953922    0.0000000000      0
  0.3569200961    0.2943043041    0.0000000000      0
  0.3569200961    0.3011132161    0.0000000000      0
  0.3569200961    0.3079221280    0.0000000000      0
  0.3569200961    0.3147310399    0.0000000000      0
  0.3569200961    0.3215399519    0.0000000000      0
  0.3569200961    0.3283488638    0.0000000000      0
  0.3569200961    0.3351577758    0.0000000000      0
  0.3569200961    0.3419666877    0.0000000000      0
  0.3569200961    0.3487755996    0.0000000000      0
  0.3569200961    0.3555845116    0.0000000000      0
  0.3569200961    0.3623934235    0.0000000000      0
  0.3569200961    0.3692023354    0.0000000000      0
  0.3569200961    0.3760112474    0.0000000000      0
  0.3569200961    0.3828201593    0.0000000000      0
  0.3569200961    0.3896290713    0.0000000000      0
  0.3647823504    0.2495197054    0.0000000000      0
  0.3647823504    0.2563286173    0.0000000000      0
  0.3647823504    0.2631375292    0.0000000000      0
  0.3647823504    0.2699464412    0.0000000000      0
  0.3647823504    0.2767553531    0.0000000000      0
  0.3647823504    0.2835642651    0.0000000000      0
  0.3647823504    0.2903731770    0.0000000000      0
  0.3647823504    0.2971820889    0.0000000000      0
  0.3647823504    0.3039910009    0.0000000000      0
  0.3647823504    0.3107999128    0.0000000000      0
  0.3647823504    0.3176088247    0.0000000000      0
  0.3647823504    0.3244177367    0.0000000000      0
  0.3647823504    0.3312266486    0.0000000000      0
  0.3647823504    0.3380355606    0.0000000000      0
  0.3647823504    0.3448444725    0.0000000000      0
  0.3647823504    0.3516533844    0.0000000000      0
  0.3647823504    0.3584622964    0.0000000000      0
  0.3647823504    0.3652712083    0.0000000000      0
  0.3647823504    0.3720801202    0.0000000000      0
  0.3647823504    0.3788890322    0.0000000000      0
  0.3647823504    0.3856979441    0.0000000000      0
  0.3726446047    0.2455885782    0.0000000000      0
  0.3726446047    0.2523974902    0.0000000000      0
  0.3726446047    0.2592064021    0.0000000000      0
  0.3726446047    0.2660153140    0.0000000000      0
  0.3726446047    0.2728242260    0.0000000000      0
  0.3726446047    0.2796331379    0.0000000000      0
  0.3726446047    0.2864420499    0.0000000000      0
  0.3726446047    0.2932509618    0.0000000000      0
  0.3726446047    0.3000598737    0.0000000000      0
  0.3726446047    0.3068687857    0.0000000000      0
  0.3726446047    0.3136776976    0.0000000000      0
  0.3726446047    0.3204866095    0.0000000000      0
  0.3726446047    0.3272955215    0.0000000000      0
  0.3726446047    0.3341044334    0.0000000000      0
  0.3726446047    0.3409133453    0.0000000000      0
  0.3726446047    0.3477222573    0.0000000000      0
  0.3726446047    0.3545311692    0.0000000000      0
  0.3726446047    0.3613400812    0.0000000000      0
  0.3726446047    0.3681489931    0.0000000000      0
  0.3726446047    0.3749579050    0.0000000000      0
  0.3726446047    0.3817668170    0.0000000000      0
  0.3805068590    0.2416574511    0.0000000000      0
  0.3805068590    0.2484663630    0.0000000000      0
  0.3805068590    0.2552752750    0.0000000000      0
  0.3805068590    0.2620841869    0.0000000000      0
  0.3805068590    0.2688930988    0.0000000000      0
  0.3805068590    0.2757020108    0.0000000000      0
  0.3805068590    0.2825109227    0.0000000000      0
  0.3805068590    0.2893198346    0.0000000000      0
  0.3805068590    0.2961287466    0.0000000000      0
  0.3805068590    0.3029376585    0.0000000000      0
  0.3805068590    0.3097465705    0.0000000000      0
  0.3805068590    0.3165554824    0.0000000000      0
  0.3805068590    0.3233643943    0.0000000000      0
  0.3805068590    0.3301733063    0.0000000000      0
  0.3805068590    0.3369822182    0.0000000000      0
  0.3805068590    0.3437911301    0.0000000000      0
  0.3805068590    0.3506000421    0.0000000000      0
  0.3805068590    0.3574089540    0.0000000000      0
  0.3805068590    0.3642178660    0.0000000000      0
  0.3805068590    0.3710267779    0.0000000000      0
  0.3805068590    0.3778356898    0.0000000000      0
  0.3883691133    0.2377263239    0.0000000000      0
  0.3883691133    0.2445352359    0.0000000000      0
  0.3883691133    0.2513441478    0.0000000000      0
  0.3883691133    0.2581530598    0.0000000000      0
  0.3883691133    0.2649619717    0.0000000000      0
  0.3883691133    0.2717708836    0.0000000000      0
  0.3883691133    0.2785797956    0.0000000000      0
  0.3883691133    0.2853887075    0.0000000000      0
  0.3883691133    0.2921976194    0.0000000000      0
  0.3883691133    0.2990065314    0.0000000000      0
  0.3883691133    0.3058154433    0.0000000000      0
  0.3883691133    0.3126243553    0.0000000000      0
  0.3883691133    0.3194332672    0.0000000000      0
  0.3883691133    0.3262421791    0.0000000000      0
  0.3883691133    0.3330510911    0.0000000000      0
  0.3883691133    0.3398600030    0.0000000000      0
  0.3883691133    0.3466689149    0.0000000000      0
  0.3883691133    0.3534778269    0.0000000000      0
  0.3883691133    0.3602867388    0.0000000000      0
  0.3883691133    0.3670956508    0.0000000000      0
  0.3883691133    0.3739045627    0.0000000000      0
  0.3962313675    0.2337951968    0.0000000000      0
  0.3962313675    0.2406041087    0.0000000000      0
  0.3962313675    0.2474130207    0.0000000000      0
  0.3962313675    0.2542219326    0.0000000000      0
  0.3962313675    0.2610308446    0.0000000000      0
  0.3962313675    0.2678397565    0.0000000000      0
  0.3962313675    0.2746486684    0.0000000000      0
  0.3962313675    0.2814575804    0.0000000000      0
  0.3962313675    0.2882664923    0.0000000000      0
  0.3962313675    0.2950754042    0.0000000000      0
  0.3962313675    0.3018843162    0.0000000000      0
  0.3962313675    0.3086932281    0.0000000000      0
  0.3962313675    0.3155021401    0.0000000000      0
  0.3962313675    0.3223110520    0.0000000000      0
  0.3962313675    0.3291199639    0.0000000000      0
  0.3962313675    0.3359288759    0.0000000000      0
  0.3962313675    0.3427377878    0.0000000000      0
  0.3962313675    0.3495466997    0.0000000000      0
  0.3962313675    0.3563556117    0.0000000000      0
  0.3962313675    0.3631645236    0.0000000000      0
  0.3962313675    0.3699734356    0.0000000000      0
  0.4040936218    0.2298640697    0.0000000000      0
  0.4040936218    0.2366729816    0.0000000000      0
  0.4040936218    0.2434818935    0.0000000000      0
  0.4040936218    0.2502908055    0.0000000000      0
  0.4040936218    0.2570997174    0.0000000000      0
  0.4040936218    0.2639086294    0.0000000000      0
  0.4040936218    0.2707175413    0.0000000000      0
  0.4040936218    0.2775264532    0.0000000000      0
  0.4040936218    0.2843353652    0.0000000000      0
  0.4040936218    0.2911442771    0.0000000000      0
  0.4040936218    0.2979531890    0.0000000000      0
  0.4040936218    0.3047621010    0.0000000000      0
  0.4040936218    0.3115710129    0.0000000000      0
  0.4040936218    0.3183799249    0.0000000000      0
  0.4040936218    0.3251888368    0.0000000000      0