Generated mesh by mcu
     17
Reciprocal lattice
   #This is where you add the k-mesh from IBZKPT, this k-mesh is used to run SCF
 0.5000000   0.0000000   0.0000000  0
 0.3750000   0.0000000   0.0000000  0
 0.2500000   0.0000000   0.0000000  0
 0.1250000   0.0000000   0.0000000  0
 0.0000000   0.0000000   0.0000000  0
 0.1250000   0.1250000   0.0000000  0
 0.2500000   0.2500000   0.0000000  0
 0.3750000   0.3750000   0.0000000  0
 0.5000000   0.5000000   0.0000000  0
 0.3750000   0.5000000   0.0000000  0
 0.2500000   0.5000000   0.0000000  0
 0.1250000   0.5000000   0.0000000  0
 0.0000000   0.5000000   0.0000000  0
 0.0000000   0.3750000   0.0000000  0
 0.0000000   0.2500000   0.0000000  0
 0.0000000   0.1250000   0.0000000  0
 0.0000000   0.0000000   0.0000000  0
