Generated by mcu on 2020/05/02 - 16:28:33
1.0
      3.1770280100    0.0000000000    0.0000000000
      0.0000000000    5.7281689400   -0.0157118500
      0.0000000000    0.3756910300   30.2151820000
 S  Mo 
 4  2 
Direct
      0.5000000000    0.1358785900    0.6473859000
      0.0000000000    0.6405161500    0.6337728800
      0.0000000000    0.3062864100    0.5324524200
      0.5000000000    0.8016452900    0.5460646600
      0.5000000000    0.4188543100    0.5873016300
      0.0000000000    0.0233088600    0.5925355600
